
     Program PWSCF v.7.5 starts on  4Sep2026 at 21: 6:17 

     This program is part of the open-source Quantum ESPRESSO suite
     for quantum simulation of materials; please cite
         "P. Giannozzi et al., J. Phys.:Condens. Matter 21 395502 (2009);
         "P. Giannozzi et al., J. Phys.:Condens. Matter 29 465901 (2017);
         "P. Giannozzi et al., J. Chem. Phys. 152 154105 (2020);
          URL http://www.quantum-espresso.org", 
     in publications or presentations arising from this work. More details at
     http://www.quantum-espresso.org/quote

     Parallel version (MPI), running on    64 processors

     MPI processes distributed on     1 nodes
     182960 MiB available memory on the printing compute node when the environment starts
 
     Reading input from 1scf.in
     Message from routine read_cards :
     DEPRECATED: no units specified in ATOMIC_POSITIONS card
     Message from routine read_cards :
     ATOMIC_POSITIONS: units set to alat

     Current dimensions of program PWSCF are:
     Max number of different atomic species (ntypx) = 10
     Max number of k-points (npk) =  40000
     Max angular momentum in pseudopotentials (lmaxx) =  4
 
     K-points division:     npool     =       8
     R & G space division:  proc/nbgrp/npool/nimage =       8
     Subspace diagonalization in iterative solution of the eigenvalue problem:
     a serial algorithm will be used

 
     Parallelization info
     --------------------
     sticks:   dense  smooth     PW     G-vecs:    dense   smooth      PW
     Min          45      45     15                  558      558     108
     Max          46      46     16                  560      560     110
     Sum         361     361    121                 4477     4477     869
 
     Using Slab Decomposition
 


     bravais-lattice index     =            2
     lattice parameter (alat)  =       9.2970  a.u.
     unit-cell volume          =     200.8947 (a.u.)^3
     number of atoms/cell      =            1
     number of atomic types    =            1
     number of electrons       =        14.00
     number of Kohn-Sham states=           11
     kinetic-energy cutoff     =      30.0000  Ry
     charge density cutoff     =     120.0000  Ry
     scf convergence threshold =      1.0E-10
     mixing beta               =       0.7000
     number of iterations used =            8  plain     mixing
     Exchange-correlation= PBE
                           (   1   4   3   4   0   0   0)

     celldm(1)=   9.297000  celldm(2)=   0.000000  celldm(3)=   0.000000
     celldm(4)=   0.000000  celldm(5)=   0.000000  celldm(6)=   0.000000

     crystal axes: (cart. coord. in units of alat)
               a(1) = (  -0.500000   0.000000   0.500000 )  
               a(2) = (   0.000000   0.500000   0.500000 )  
               a(3) = (  -0.500000   0.500000   0.000000 )  

     reciprocal axes: (cart. coord. in units 2 pi/alat)
               b(1) = ( -1.000000 -1.000000  1.000000 )  
               b(2) = (  1.000000  1.000000  1.000000 )  
               b(3) = ( -1.000000  1.000000 -1.000000 )  


     PseudoPot. # 1 for Pb read from file:
     ~/Pb/pseudo/Pb.upf
     MD5 check sum: Not computed, couldn't open file
     Pseudo is Norm-conserving + core correction, Zval = 14.0
     Generated using ONCVPSP code by D. R. Hamann
     Using radial grid of 1678 points,  6 beta functions with: 
                l(1) =   0
                l(2) =   0
                l(3) =   1
                l(4) =   1
                l(5) =   2
                l(6) =   2

     atomic species   valence    mass     pseudopotential
     Pb               14.00   207.20000     Pb( 1.00)

     48 Sym. Ops., with inversion, found



   Cartesian axes

     site n.     atom                  positions (alat units)
         1        Pb     tau(   1) = (   0.0000000   0.0000000   0.0000000  )

     number of k points=    29  Marzari-Vanderbilt smearing, width (Ry)=  0.0500
                       cart. coord. in units 2pi/alat
        k(    1) = (   0.0000000   0.0000000   0.0000000), wk =   0.0039062
        k(    2) = (  -0.1250000   0.1250000  -0.1250000), wk =   0.0312500
        k(    3) = (  -0.2500000   0.2500000  -0.2500000), wk =   0.0312500
        k(    4) = (  -0.3750000   0.3750000  -0.3750000), wk =   0.0312500
        k(    5) = (   0.5000000  -0.5000000   0.5000000), wk =   0.0156250
        k(    6) = (   0.0000000   0.2500000   0.0000000), wk =   0.0234375
        k(    7) = (  -0.1250000   0.3750000  -0.1250000), wk =   0.0937500
        k(    8) = (  -0.2500000   0.5000000  -0.2500000), wk =   0.0937500
        k(    9) = (   0.6250000  -0.3750000   0.6250000), wk =   0.0937500
        k(   10) = (   0.5000000  -0.2500000   0.5000000), wk =   0.0937500
        k(   11) = (   0.3750000  -0.1250000   0.3750000), wk =   0.0937500
        k(   12) = (   0.2500000   0.0000000   0.2500000), wk =   0.0468750
        k(   13) = (   0.0000000   0.5000000   0.0000000), wk =   0.0234375
        k(   14) = (  -0.1250000   0.6250000  -0.1250000), wk =   0.0937500
        k(   15) = (   0.7500000  -0.2500000   0.7500000), wk =   0.0937500
        k(   16) = (   0.6250000  -0.1250000   0.6250000), wk =   0.0937500
        k(   17) = (   0.5000000   0.0000000   0.5000000), wk =   0.0468750
        k(   18) = (   0.0000000   0.7500000   0.0000000), wk =   0.0234375
        k(   19) = (   0.8750000  -0.1250000   0.8750000), wk =   0.0937500
        k(   20) = (   0.7500000   0.0000000   0.7500000), wk =   0.0468750
        k(   21) = (   0.0000000  -1.0000000   0.0000000), wk =   0.0117188
        k(   22) = (  -0.2500000   0.5000000   0.0000000), wk =   0.0937500
        k(   23) = (   0.6250000  -0.3750000   0.8750000), wk =   0.1875000
        k(   24) = (   0.5000000  -0.2500000   0.7500000), wk =   0.0937500
        k(   25) = (   0.7500000  -0.2500000   1.0000000), wk =   0.0937500
        k(   26) = (   0.6250000  -0.1250000   0.8750000), wk =   0.1875000
        k(   27) = (   0.5000000   0.0000000   0.7500000), wk =   0.0937500
        k(   28) = (  -0.2500000  -1.0000000   0.0000000), wk =   0.0468750
        k(   29) = (  -0.5000000  -1.0000000   0.0000000), wk =   0.0234375

     Dense  grid:     4477 G-vectors     FFT dimensions: (  24,  24,  24)

     Estimated max dynamical RAM per process >       1.38 MB

     Estimated total dynamical RAM >      80.68 MB

     Initial potential from superposition of free atoms

     starting charge      13.9979, renormalised to      14.0000

     negative rho (up, down):  2.758E-05 0.000E+00
     Starting wfcs are    9 randomized atomic wfcs +    2 random wfcs

     total cpu time spent up to now is        0.9 secs

     Self-consistent Calculation

     iteration #  1     ecut=    30.00 Ry     beta= 0.70
     Davidson diagonalization with overlap
     ethr =  1.00E-02,  avg # of iterations =  5.7

     Threshold (ethr) on eigenvalues was too large:
     Diagonalizing with lowered threshold

     Davidson diagonalization with overlap
     ethr =  2.52E-04,  avg # of iterations =  2.3

     total cpu time spent up to now is        0.9 secs

     total energy              =    -140.32627244 Ry
     estimated scf accuracy    <       0.03713588 Ry

     iteration #  2     ecut=    30.00 Ry     beta= 0.70
     Davidson diagonalization with overlap
     ethr =  2.65E-04,  avg # of iterations =  2.0

     total cpu time spent up to now is        0.9 secs

     total energy              =    -140.33474284 Ry
     estimated scf accuracy    <       0.00249105 Ry

     iteration #  3     ecut=    30.00 Ry     beta= 0.70
     Davidson diagonalization with overlap
     ethr =  1.78E-05,  avg # of iterations =  3.2

     total cpu time spent up to now is        1.0 secs

     total energy              =    -140.33510760 Ry
     estimated scf accuracy    <       0.00011790 Ry

     iteration #  4     ecut=    30.00 Ry     beta= 0.70
     Davidson diagonalization with overlap
     ethr =  8.42E-07,  avg # of iterations =  3.2

     total cpu time spent up to now is        1.0 secs

     total energy              =    -140.33511491 Ry
     estimated scf accuracy    <       0.00000212 Ry

     iteration #  5     ecut=    30.00 Ry     beta= 0.70
     Davidson diagonalization with overlap
     ethr =  1.51E-08,  avg # of iterations =  2.1

     total cpu time spent up to now is        1.0 secs

     total energy              =    -140.33511555 Ry
     estimated scf accuracy    <       0.00000065 Ry

     iteration #  6     ecut=    30.00 Ry     beta= 0.70
     Davidson diagonalization with overlap
     ethr =  4.66E-09,  avg # of iterations =  2.0

     total cpu time spent up to now is        1.0 secs

     total energy              =    -140.33511567 Ry
     estimated scf accuracy    <          1.8E-09 Ry

     iteration #  7     ecut=    30.00 Ry     beta= 0.70
     Davidson diagonalization with overlap
     ethr =  1.31E-11,  avg # of iterations =  3.7

     total cpu time spent up to now is        1.1 secs

     total energy              =    -140.33511568 Ry
     estimated scf accuracy    <          5.8E-10 Ry

     iteration #  8     ecut=    30.00 Ry     beta= 0.70
     Davidson diagonalization with overlap
     ethr =  4.12E-12,  avg # of iterations =  2.0

     total cpu time spent up to now is        1.1 secs

     End of self-consistent calculation

          k = 0.0000 0.0000 0.0000 (   537 PWs)   bands (ev):

    -5.3681  -5.3681  -5.3681  -5.2040  -5.2040  -0.1764  19.2826  19.2826
    19.2826  21.8700  23.2447

          k =-0.1250 0.1250-0.1250 (   552 PWs)   bands (ev):

    -5.4865  -5.3951  -5.3951  -5.2703  -5.2703   0.1291  16.4382  18.9271
    18.9271  21.3511  24.4511

          k =-0.2500 0.2500-0.2500 (   561 PWs)   bands (ev):

    -5.4414  -5.4414  -5.4288  -5.2897  -5.2897   1.0433  12.5146  18.2271
    18.2271  20.9707  23.5658

          k =-0.3750 0.3750-0.3750 (   562 PWs)   bands (ev):

    -5.4763  -5.4471  -5.4471  -5.1859  -5.1859   2.4647   9.1685  17.6453
    17.6453  20.9474  22.1913

          k = 0.5000-0.5000 0.5000 (   568 PWs)   bands (ev):

    -5.5019  -5.5019  -5.4564  -5.2162  -5.2162   3.5336   7.4489  17.4238
    17.4238  21.2714  21.4100

          k = 0.0000 0.2500 0.0000 (   556 PWs)   bands (ev):

    -5.4719  -5.4204  -5.4204  -5.3562  -5.2330   0.2308  17.2476  17.8494
    17.8494  20.7793  23.0943

          k =-0.1250 0.3750-0.1250 (   561 PWs)   bands (ev):

    -5.5386  -5.4302  -5.3915  -5.3295  -5.2154   0.9420  13.8628  16.9301
    17.3602  20.8240  22.0443

          k =-0.2500 0.5000-0.2500 (   564 PWs)   bands (ev):

    -5.5108  -5.4577  -5.4033  -5.2410  -5.1964   2.2103  10.3949  16.3365
    16.4719  20.1028  23.6006

          k = 0.6250-0.3750 0.6250 (   565 PWs)   bands (ev):

    -5.5264  -5.4336  -5.4253  -5.1987  -5.1912   3.5825   7.9903  15.4248
    16.5980  19.9660  23.3701

          k = 0.5000-0.2500 0.5000 (   567 PWs)   bands (ev):

    -5.5090  -5.4413  -5.4382  -5.2268  -5.2244   3.1905   8.5989  14.9713
    17.3201  20.4674  22.8785

          k = 0.3750-0.1250 0.3750 (   557 PWs)   bands (ev):

    -5.4517  -5.4207  -5.4206  -5.2507  -5.1444   1.7352  11.4872  15.1246
    18.4541  21.5651  22.6717

          k = 0.2500 0.0000 0.2500 (   559 PWs)   bands (ev):

    -5.5329  -5.4372  -5.3734  -5.3519  -5.2271   0.6382  14.7423  16.2311
    19.3233  22.1449  23.3015

          k = 0.0000 0.5000 0.0000 (   560 PWs)   bands (ev):

    -5.6240  -5.3839  -5.3052  -5.3052  -5.1805   1.4476  14.0492  15.7788
    15.7788  19.5172  19.5861

          k =-0.1250 0.6250-0.1250 (   558 PWs)   bands (ev):

    -5.5791  -5.4242  -5.2526  -5.2108  -5.1397   2.5178  11.5828  14.3687
    15.1625  18.8223  20.7152

          k = 0.7500-0.2500 0.7500 (   554 PWs)   bands (ev):

    -5.5302  -5.3693  -5.2402  -5.1818  -5.1124   3.8712   9.2501  12.8003
    15.2170  18.7388  23.6627

          k = 0.6250-0.1250 0.6250 (   553 PWs)   bands (ev):

    -5.5099  -5.2924  -5.2660  -5.1816  -5.1543   4.1555   8.9260  11.8622
    15.9538  19.1767  25.7393

          k = 0.5000 0.0000 0.5000 (   554 PWs)   bands (ev):

    -5.4523  -5.3775  -5.3356  -5.1835  -5.1620   2.9248  10.6402  12.2013
    17.2253  20.1400  24.9036

          k = 0.0000 0.7500 0.0000 (   568 PWs)   bands (ev):

    -5.6546  -5.5244  -5.2167  -5.1892  -5.1892   3.3690  10.5920  14.3353
    14.3353  17.7422  18.7749

          k = 0.8750-0.1250 0.8750 (   558 PWs)   bands (ev):

    -5.6279  -5.4351  -5.1434  -5.1195  -5.1180   4.4956   9.2338  12.5475
    14.1932  17.9408  20.1025

          k = 0.7500 0.0000 0.7500 (   548 PWs)   bands (ev):

    -5.4827  -5.2835  -5.2041  -5.1288  -5.0990   4.8855   9.4153  10.5008
    14.7719  18.3679  23.3895

          k = 0.0000-1.0000 0.0000 (   556 PWs)   bands (ev):

    -5.6320  -5.4252  -5.1245  -5.0682  -5.0682   4.9744   8.4019  13.8260
    13.8260  17.2422  18.5443

          k =-0.2500 0.5000 0.0000 (   551 PWs)   bands (ev):

    -5.4840  -5.4369  -5.2701  -5.2230  -5.0919   1.8378  12.3924  14.2245
    16.8712  21.0225  21.6384

          k = 0.6250-0.3750 0.8750 (   557 PWs)   bands (ev):

    -5.4612  -5.4079  -5.3195  -5.2030  -5.1725   3.1820   9.8661  13.2862
    15.6496  20.8116  23.1490

          k = 0.5000-0.2500 0.7500 (   552 PWs)   bands (ev):

    -5.4418  -5.3947  -5.2693  -5.1955  -5.0988   4.1258   8.3901  13.1785
    15.0870  20.7130  22.9605

          k = 0.7500-0.2500 1.0000 (   567 PWs)   bands (ev):

    -5.5870  -5.4746  -5.2536  -5.2300  -5.2069   3.6600  10.3443  12.8609
    13.8100  19.8374  20.8082

          k = 0.6250-0.1250 0.8750 (   555 PWs)   bands (ev):

    -5.4924  -5.3638  -5.2406  -5.2089  -5.1000   4.6884   9.4415  11.2787
    13.4538  20.4154  23.5659

          k = 0.5000 0.0000 0.7500 (   554 PWs)   bands (ev):

    -5.4569  -5.3183  -5.2998  -5.2043  -5.1337   4.3421   9.9044  10.8283
    14.2477  21.0229  24.5762

          k =-0.2500-1.0000 0.0000 (   564 PWs)   bands (ev):

    -5.6033  -5.4709  -5.2417  -5.1661  -5.0956   5.0234   8.9121  12.3819
    12.7155  19.4672  20.5252

          k =-0.5000-1.0000 0.0000 (   560 PWs)   bands (ev):

    -5.4302  -5.3430  -5.3430  -5.2602  -5.1187   5.0771  10.3440  10.3440
    12.0132  22.7770  24.2652

     the Fermi energy is    11.7835 ev

!    total energy              =    -140.33511568 Ry
     estimated scf accuracy    <          1.8E-12 Ry
     smearing contrib. (-TS)   =      -0.00004138 Ry
     internal energy E=F+TS    =    -140.33507430 Ry

     The total energy is F=E-TS. E is the sum of the following terms:
     one-electron contribution =     -28.29941822 Ry
     hartree contribution      =      24.47159854 Ry
     xc contribution           =     -39.84887373 Ry
     ewald contribution        =     -96.65838089 Ry

     convergence has been achieved in   8 iterations

     Writing all to output data dir ./tmp/pb.save/ :
     XML data file, charge density, pseudopotentials, collected wavefunctions
 
     init_run     :      0.11s CPU      0.36s WALL (       1 calls)
     electrons    :      0.21s CPU      0.29s WALL (       1 calls)

     Called by init_run:
     wfcinit      :      0.01s CPU      0.02s WALL (       1 calls)
     potinit      :      0.01s CPU      0.03s WALL (       1 calls)
     hinit0       :      0.03s CPU      0.24s WALL (       1 calls)

     Called by electrons:
     c_bands      :      0.14s CPU      0.15s WALL (       9 calls)
     sum_band     :      0.03s CPU      0.03s WALL (       9 calls)
     v_of_rho     :      0.01s CPU      0.01s WALL (       9 calls)
     mix_rho      :      0.00s CPU      0.00s WALL (       9 calls)

     Called by c_bands:
     init_us_2    :      0.00s CPU      0.00s WALL (      76 calls)
     cegterg      :      0.12s CPU      0.12s WALL (      36 calls)

     Called by *egterg:
     cdiaghg      :      0.02s CPU      0.02s WALL (     154 calls)
     h_psi        :      0.09s CPU      0.10s WALL (     162 calls)
     g_psi        :      0.00s CPU      0.00s WALL (     122 calls)

     Called by h_psi:
     h_psi:calbec :      0.00s CPU      0.00s WALL (     162 calls)
     vloc_psi     :      0.08s CPU      0.09s WALL (     162 calls)
                                        0.00s GPU  (     162 calls)
     add_vuspsi   :      0.00s CPU      0.00s WALL (     162 calls)

     General routines
     calbec       :      0.00s CPU      0.00s WALL (     162 calls)
     fft          :      0.01s CPU      0.21s WALL (      91 calls)
     ffts         :      0.00s CPU      0.00s WALL (       9 calls)
     fftw         :      0.09s CPU      0.10s WALL (    2564 calls)
 
     Parallel routines
 
     PWSCF        :      0.60s CPU      1.46s WALL

 
   This run was terminated on:  21: 6:19   4Sep2026            

=------------------------------------------------------------------------------=
   JOB DONE.
=------------------------------------------------------------------------------=
