
     Program PWSCF v.7.5 starts on  4Sep2026 at 21: 6:23 

     This program is part of the open-source Quantum ESPRESSO suite
     for quantum simulation of materials; please cite
         "P. Giannozzi et al., J. Phys.:Condens. Matter 21 395502 (2009);
         "P. Giannozzi et al., J. Phys.:Condens. Matter 29 465901 (2017);
         "P. Giannozzi et al., J. Chem. Phys. 152 154105 (2020);
          URL http://www.quantum-espresso.org", 
     in publications or presentations arising from this work. More details at
     http://www.quantum-espresso.org/quote

     Parallel version (MPI), running on    64 processors

     MPI processes distributed on     1 nodes
     182953 MiB available memory on the printing compute node when the environment starts
 
     Reading input from 99band.1pw.in

     Current dimensions of program PWSCF are:
     Max number of different atomic species (ntypx) = 10
     Max number of k-points (npk) =  40000
     Max angular momentum in pseudopotentials (lmaxx) =  4

     Atomic positions and unit cell read from directory:
     ./tmp/pb.save/
 
     Message from routine setup:
     using ibrav=0 with symmetry is DISCOURAGED, use correct ibrav instead
 
     K-points division:     npool     =       8
     R & G space division:  proc/nbgrp/npool/nimage =       8
     Subspace diagonalization in iterative solution of the eigenvalue problem:
     a serial algorithm will be used

 
     Parallelization info
     --------------------
     sticks:   dense  smooth     PW     G-vecs:    dense   smooth      PW
     Min          45      45     15                  558      558     108
     Max          46      46     16                  560      560     110
     Sum         361     361    121                 4477     4477     869
 
     Using Slab Decomposition
 


     bravais-lattice index     =            0
     lattice parameter (alat)  =       9.2970  a.u.
     unit-cell volume          =     200.8947 (a.u.)^3
     number of atoms/cell      =            1
     number of atomic types    =            1
     number of electrons       =        14.00
     number of Kohn-Sham states=           10
     kinetic-energy cutoff     =      30.0000  Ry
     charge density cutoff     =     120.0000  Ry
     Exchange-correlation= PBE
                           (   1   4   3   4   0   0   0)

     celldm(1)=   6.574292  celldm(2)=   0.000000  celldm(3)=   0.000000
     celldm(4)=   0.000000  celldm(5)=   0.000000  celldm(6)=   0.000000

     crystal axes: (cart. coord. in units of alat)
               a(1) = (  -0.500000   0.000000   0.500000 )  
               a(2) = (   0.000000   0.500000   0.500000 )  
               a(3) = (  -0.500000   0.500000   0.000000 )  

     reciprocal axes: (cart. coord. in units 2 pi/alat)
               b(1) = ( -1.000000 -1.000000  1.000000 )  
               b(2) = (  1.000000  1.000000  1.000000 )  
               b(3) = ( -1.000000  1.000000 -1.000000 )  


     PseudoPot. # 1 for Pb read from file:
     /home/hwang/Pb/pseudo/Pb.upf
     MD5 check sum: 6215d06c6470b1b628b0a05dc3ba27e6
     Pseudo is Norm-conserving + core correction, Zval = 14.0
     Generated using ONCVPSP code by D. R. Hamann
     Using radial grid of 1678 points,  6 beta functions with: 
                l(1) =   0
                l(2) =   0
                l(3) =   1
                l(4) =   1
                l(5) =   2
                l(6) =   2

     atomic species   valence    mass     pseudopotential
     Pb               14.00   207.20000     Pb( 1.00)

     48 Sym. Ops., with inversion, found


                                    s                        frac. trans.

      isym =  1     identity                                     

 cryst.   s( 1) = (     1          0          0      )
                  (     0          1          0      )
                  (     0          0          1      )

 cart.    s( 1) = (  1.0000000  0.0000000  0.0000000 )
                  (  0.0000000  1.0000000  0.0000000 )
                  (  0.0000000  0.0000000  1.0000000 )


      isym =  2     180 deg rotation - cart. axis [0,0,1]        

 cryst.   s( 2) = (     0          1         -1      )
                  (     1          0         -1      )
                  (     0          0         -1      )

 cart.    s( 2) = ( -1.0000000  0.0000000  0.0000000 )
                  (  0.0000000 -1.0000000  0.0000000 )
                  (  0.0000000  0.0000000  1.0000000 )


      isym =  3     180 deg rotation - cart. axis [0,1,0]        

 cryst.   s( 3) = (    -1          0          0      )
                  (    -1          0          1      )
                  (    -1          1          0      )

 cart.    s( 3) = ( -1.0000000  0.0000000  0.0000000 )
                  (  0.0000000  1.0000000  0.0000000 )
                  (  0.0000000  0.0000000 -1.0000000 )


      isym =  4     180 deg rotation - cart. axis [1,0,0]        

 cryst.   s( 4) = (     0         -1          1      )
                  (     0         -1          0      )
                  (     1         -1          0      )

 cart.    s( 4) = (  1.0000000  0.0000000  0.0000000 )
                  (  0.0000000 -1.0000000  0.0000000 )
                  (  0.0000000  0.0000000 -1.0000000 )


      isym =  5     180 deg rotation - cart. axis [1,1,0]        

 cryst.   s( 5) = (     0         -1          0      )
                  (    -1          0          0      )
                  (     0          0         -1      )

 cart.    s( 5) = (  0.0000000  1.0000000  0.0000000 )
                  (  1.0000000  0.0000000  0.0000000 )
                  (  0.0000000  0.0000000 -1.0000000 )


      isym =  6     180 deg rotation - cart. axis [1,-1,0]       

 cryst.   s( 6) = (    -1          0          1      )
                  (     0         -1          1      )
                  (     0          0          1      )

 cart.    s( 6) = (  0.0000000 -1.0000000  0.0000000 )
                  ( -1.0000000  0.0000000  0.0000000 )
                  (  0.0000000  0.0000000 -1.0000000 )


      isym =  7      90 deg rotation - cart. axis [0,0,-1]       

 cryst.   s( 7) = (     0          1          0      )
                  (     0          1         -1      )
                  (    -1          1          0      )

 cart.    s( 7) = (  0.0000000  1.0000000  0.0000000 )
                  ( -1.0000000  0.0000000  0.0000000 )
                  (  0.0000000  0.0000000  1.0000000 )


      isym =  8      90 deg rotation - cart. axis [0,0,1]        

 cryst.   s( 8) = (     1          0         -1      )
                  (     1          0          0      )
                  (     1         -1          0      )

 cart.    s( 8) = (  0.0000000 -1.0000000  0.0000000 )
                  (  1.0000000  0.0000000  0.0000000 )
                  (  0.0000000  0.0000000  1.0000000 )


      isym =  9     180 deg rotation - cart. axis [1,0,1]        

 cryst.   s( 9) = (    -1          0          0      )
                  (     0          0         -1      )
                  (     0         -1          0      )

 cart.    s( 9) = (  0.0000000  0.0000000  1.0000000 )
                  (  0.0000000 -1.0000000  0.0000000 )
                  (  1.0000000  0.0000000  0.0000000 )


      isym = 10     180 deg rotation - cart. axis [-1,0,1]       

 cryst.   s(10) = (     1          0          0      )
                  (     1         -1          0      )
                  (     1          0         -1      )

 cart.    s(10) = (  0.0000000  0.0000000 -1.0000000 )
                  (  0.0000000 -1.0000000  0.0000000 )
                  ( -1.0000000  0.0000000  0.0000000 )


      isym = 11      90 deg rotation - cart. axis [0,1,0]        

 cryst.   s(11) = (     0          1         -1      )
                  (    -1          1          0      )
                  (     0          1          0      )

 cart.    s(11) = (  0.0000000  0.0000000  1.0000000 )
                  (  0.0000000  1.0000000  0.0000000 )
                  ( -1.0000000  0.0000000  0.0000000 )


      isym = 12      90 deg rotation - cart. axis [0,-1,0]       

 cryst.   s(12) = (     0         -1          1      )
                  (     0          0          1      )
                  (    -1          0          1      )

 cart.    s(12) = (  0.0000000  0.0000000 -1.0000000 )
                  (  0.0000000  1.0000000  0.0000000 )
                  (  1.0000000  0.0000000  0.0000000 )


      isym = 13     180 deg rotation - cart. axis [0,1,1]        

 cryst.   s(13) = (    -1          1          0      )
                  (     0          1          0      )
                  (     0          1         -1      )

 cart.    s(13) = ( -1.0000000  0.0000000  0.0000000 )
                  (  0.0000000  0.0000000  1.0000000 )
                  (  0.0000000  1.0000000  0.0000000 )


      isym = 14     180 deg rotation - cart. axis [0,1,-1]       

 cryst.   s(14) = (     0          0         -1      )
                  (     0         -1          0      )
                  (    -1          0          0      )

 cart.    s(14) = ( -1.0000000  0.0000000  0.0000000 )
                  (  0.0000000  0.0000000 -1.0000000 )
                  (  0.0000000 -1.0000000  0.0000000 )


      isym = 15      90 deg rotation - cart. axis [-1,0,0]       

 cryst.   s(15) = (     0          0          1      )
                  (    -1          0          1      )
                  (     0         -1          1      )

 cart.    s(15) = (  1.0000000  0.0000000  0.0000000 )
                  (  0.0000000  0.0000000  1.0000000 )
                  (  0.0000000 -1.0000000  0.0000000 )


      isym = 16      90 deg rotation - cart. axis [1,0,0]        

 cryst.   s(16) = (     1         -1          0      )
                  (     1          0         -1      )
                  (     1          0          0      )

 cart.    s(16) = (  1.0000000  0.0000000  0.0000000 )
                  (  0.0000000  0.0000000 -1.0000000 )
                  (  0.0000000  1.0000000  0.0000000 )


      isym = 17     120 deg rotation - cart. axis [-1,-1,-1]     

 cryst.   s(17) = (    -1          0          1      )
                  (    -1          1          0      )
                  (    -1          0          0      )

 cart.    s(17) = (  0.0000000  1.0000000  0.0000000 )
                  (  0.0000000  0.0000000  1.0000000 )
                  (  1.0000000  0.0000000  0.0000000 )


      isym = 18     120 deg rotation - cart. axis [-1,1,1]       

 cryst.   s(18) = (     0          1          0      )
                  (     0          0          1      )
                  (     1          0          0      )

 cart.    s(18) = (  0.0000000 -1.0000000  0.0000000 )
                  (  0.0000000  0.0000000  1.0000000 )
                  ( -1.0000000  0.0000000  0.0000000 )


      isym = 19     120 deg rotation - cart. axis [1,1,-1]       

 cryst.   s(19) = (     1          0         -1      )
                  (     0          0         -1      )
                  (     0          1         -1      )

 cart.    s(19) = (  0.0000000  1.0000000  0.0000000 )
                  (  0.0000000  0.0000000 -1.0000000 )
                  ( -1.0000000  0.0000000  0.0000000 )


      isym = 20     120 deg rotation - cart. axis [1,-1,1]       

 cryst.   s(20) = (     0         -1          0      )
                  (     1         -1          0      )
                  (     0         -1          1      )

 cart.    s(20) = (  0.0000000 -1.0000000  0.0000000 )
                  (  0.0000000  0.0000000 -1.0000000 )
                  (  1.0000000  0.0000000  0.0000000 )


      isym = 21     120 deg rotation - cart. axis [1,1,1]        

 cryst.   s(21) = (     0          0         -1      )
                  (     0          1         -1      )
                  (     1          0         -1      )

 cart.    s(21) = (  0.0000000  0.0000000  1.0000000 )
                  (  1.0000000  0.0000000  0.0000000 )
                  (  0.0000000  1.0000000  0.0000000 )


      isym = 22     120 deg rotation - cart. axis [-1,1,-1]      

 cryst.   s(22) = (    -1          1          0      )
                  (    -1          0          0      )
                  (    -1          0          1      )

 cart.    s(22) = (  0.0000000  0.0000000  1.0000000 )
                  ( -1.0000000  0.0000000  0.0000000 )
                  (  0.0000000 -1.0000000  0.0000000 )


      isym = 23     120 deg rotation - cart. axis [1,-1,-1]      

 cryst.   s(23) = (     0          0          1      )
                  (     1          0          0      )
                  (     0          1          0      )

 cart.    s(23) = (  0.0000000  0.0000000 -1.0000000 )
                  ( -1.0000000  0.0000000  0.0000000 )
                  (  0.0000000  1.0000000  0.0000000 )


      isym = 24     120 deg rotation - cart. axis [-1,-1,1]      

 cryst.   s(24) = (     1         -1          0      )
                  (     0         -1          1      )
                  (     0         -1          0      )

 cart.    s(24) = (  0.0000000  0.0000000 -1.0000000 )
                  (  1.0000000  0.0000000  0.0000000 )
                  (  0.0000000 -1.0000000  0.0000000 )


      isym = 25     inversion                                    

 cryst.   s(25) = (    -1          0          0      )
                  (     0         -1          0      )
                  (     0          0         -1      )

 cart.    s(25) = ( -1.0000000  0.0000000  0.0000000 )
                  (  0.0000000 -1.0000000  0.0000000 )
                  (  0.0000000  0.0000000 -1.0000000 )


      isym = 26     inv. 180 deg rotation - cart. axis [0,0,1]   

 cryst.   s(26) = (     0         -1          1      )
                  (    -1          0          1      )
                  (     0          0          1      )

 cart.    s(26) = (  1.0000000  0.0000000  0.0000000 )
                  (  0.0000000  1.0000000  0.0000000 )
                  (  0.0000000  0.0000000 -1.0000000 )


      isym = 27     inv. 180 deg rotation - cart. axis [0,1,0]   

 cryst.   s(27) = (     1          0          0      )
                  (     1          0         -1      )
                  (     1         -1          0      )

 cart.    s(27) = (  1.0000000  0.0000000  0.0000000 )
                  (  0.0000000 -1.0000000  0.0000000 )
                  (  0.0000000  0.0000000  1.0000000 )


      isym = 28     inv. 180 deg rotation - cart. axis [1,0,0]   

 cryst.   s(28) = (     0          1         -1      )
                  (     0          1          0      )
                  (    -1          1          0      )

 cart.    s(28) = ( -1.0000000  0.0000000  0.0000000 )
                  (  0.0000000  1.0000000  0.0000000 )
                  (  0.0000000  0.0000000  1.0000000 )


      isym = 29     inv. 180 deg rotation - cart. axis [1,1,0]   

 cryst.   s(29) = (     0          1          0      )
                  (     1          0          0      )
                  (     0          0          1      )

 cart.    s(29) = (  0.0000000 -1.0000000  0.0000000 )
                  ( -1.0000000  0.0000000  0.0000000 )
                  (  0.0000000  0.0000000  1.0000000 )


      isym = 30     inv. 180 deg rotation - cart. axis [1,-1,0]  

 cryst.   s(30) = (     1          0         -1      )
                  (     0          1         -1      )
                  (     0          0         -1      )

 cart.    s(30) = (  0.0000000  1.0000000  0.0000000 )
                  (  1.0000000  0.0000000  0.0000000 )
                  (  0.0000000  0.0000000  1.0000000 )


      isym = 31     inv.  90 deg rotation - cart. axis [0,0,-1]  

 cryst.   s(31) = (     0         -1          0      )
                  (     0         -1          1      )
                  (     1         -1          0      )

 cart.    s(31) = (  0.0000000 -1.0000000  0.0000000 )
                  (  1.0000000  0.0000000  0.0000000 )
                  (  0.0000000  0.0000000 -1.0000000 )


      isym = 32     inv.  90 deg rotation - cart. axis [0,0,1]   

 cryst.   s(32) = (    -1          0          1      )
                  (    -1          0          0      )
                  (    -1          1          0      )

 cart.    s(32) = (  0.0000000  1.0000000  0.0000000 )
                  ( -1.0000000  0.0000000  0.0000000 )
                  (  0.0000000  0.0000000 -1.0000000 )


      isym = 33     inv. 180 deg rotation - cart. axis [1,0,1]   

 cryst.   s(33) = (     1          0          0      )
                  (     0          0          1      )
                  (     0          1          0      )

 cart.    s(33) = (  0.0000000  0.0000000 -1.0000000 )
                  (  0.0000000  1.0000000  0.0000000 )
                  ( -1.0000000  0.0000000  0.0000000 )


      isym = 34     inv. 180 deg rotation - cart. axis [-1,0,1]  

 cryst.   s(34) = (    -1          0          0      )
                  (    -1          1          0      )
                  (    -1          0          1      )

 cart.    s(34) = (  0.0000000  0.0000000  1.0000000 )
                  (  0.0000000  1.0000000  0.0000000 )
                  (  1.0000000  0.0000000  0.0000000 )


      isym = 35     inv.  90 deg rotation - cart. axis [0,1,0]   

 cryst.   s(35) = (     0         -1          1      )
                  (     1         -1          0      )
                  (     0         -1          0      )

 cart.    s(35) = (  0.0000000  0.0000000 -1.0000000 )
                  (  0.0000000 -1.0000000  0.0000000 )
                  (  1.0000000  0.0000000  0.0000000 )


      isym = 36     inv.  90 deg rotation - cart. axis [0,-1,0]  

 cryst.   s(36) = (     0          1         -1      )
                  (     0          0         -1      )
                  (     1          0         -1      )

 cart.    s(36) = (  0.0000000  0.0000000  1.0000000 )
                  (  0.0000000 -1.0000000  0.0000000 )
                  ( -1.0000000  0.0000000  0.0000000 )


      isym = 37     inv. 180 deg rotation - cart. axis [0,1,1]   

 cryst.   s(37) = (     1         -1          0      )
                  (     0         -1          0      )
                  (     0         -1          1      )

 cart.    s(37) = (  1.0000000  0.0000000  0.0000000 )
                  (  0.0000000  0.0000000 -1.0000000 )
                  (  0.0000000 -1.0000000  0.0000000 )


      isym = 38     inv. 180 deg rotation - cart. axis [0,1,-1]  

 cryst.   s(38) = (     0          0          1      )
                  (     0          1          0      )
                  (     1          0          0      )

 cart.    s(38) = (  1.0000000  0.0000000  0.0000000 )
                  (  0.0000000  0.0000000  1.0000000 )
                  (  0.0000000  1.0000000  0.0000000 )


      isym = 39     inv.  90 deg rotation - cart. axis [-1,0,0]  

 cryst.   s(39) = (     0          0         -1      )
                  (     1          0         -1      )
                  (     0          1         -1      )

 cart.    s(39) = ( -1.0000000  0.0000000  0.0000000 )
                  (  0.0000000  0.0000000 -1.0000000 )
                  (  0.0000000  1.0000000  0.0000000 )


      isym = 40     inv.  90 deg rotation - cart. axis [1,0,0]   

 cryst.   s(40) = (    -1          1          0      )
                  (    -1          0          1      )
                  (    -1          0          0      )

 cart.    s(40) = ( -1.0000000  0.0000000  0.0000000 )
                  (  0.0000000  0.0000000  1.0000000 )
                  (  0.0000000 -1.0000000  0.0000000 )


      isym = 41     inv. 120 deg rotation - cart. axis [-1,-1,-1]

 cryst.   s(41) = (     1          0         -1      )
                  (     1         -1          0      )
                  (     1          0          0      )

 cart.    s(41) = (  0.0000000 -1.0000000  0.0000000 )
                  (  0.0000000  0.0000000 -1.0000000 )
                  ( -1.0000000  0.0000000  0.0000000 )


      isym = 42     inv. 120 deg rotation - cart. axis [-1,1,1]  

 cryst.   s(42) = (     0         -1          0      )
                  (     0          0         -1      )
                  (    -1          0          0      )

 cart.    s(42) = (  0.0000000  1.0000000  0.0000000 )
                  (  0.0000000  0.0000000 -1.0000000 )
                  (  1.0000000  0.0000000  0.0000000 )


      isym = 43     inv. 120 deg rotation - cart. axis [1,1,-1]  

 cryst.   s(43) = (    -1          0          1      )
                  (     0          0          1      )
                  (     0         -1          1      )

 cart.    s(43) = (  0.0000000 -1.0000000  0.0000000 )
                  (  0.0000000  0.0000000  1.0000000 )
                  (  1.0000000  0.0000000  0.0000000 )


      isym = 44     inv. 120 deg rotation - cart. axis [1,-1,1]  

 cryst.   s(44) = (     0          1          0      )
                  (    -1          1          0      )
                  (     0          1         -1      )

 cart.    s(44) = (  0.0000000  1.0000000  0.0000000 )
                  (  0.0000000  0.0000000  1.0000000 )
                  ( -1.0000000  0.0000000  0.0000000 )


      isym = 45     inv. 120 deg rotation - cart. axis [1,1,1]   

 cryst.   s(45) = (     0          0          1      )
                  (     0         -1          1      )
                  (    -1          0          1      )

 cart.    s(45) = (  0.0000000  0.0000000 -1.0000000 )
                  ( -1.0000000  0.0000000  0.0000000 )
                  (  0.0000000 -1.0000000  0.0000000 )


      isym = 46     inv. 120 deg rotation - cart. axis [-1,1,-1] 

 cryst.   s(46) = (     1         -1          0      )
                  (     1          0          0      )
                  (     1          0         -1      )

 cart.    s(46) = (  0.0000000  0.0000000 -1.0000000 )
                  (  1.0000000  0.0000000  0.0000000 )
                  (  0.0000000  1.0000000  0.0000000 )


      isym = 47     inv. 120 deg rotation - cart. axis [1,-1,-1] 

 cryst.   s(47) = (     0          0         -1      )
                  (    -1          0          0      )
                  (     0         -1          0      )

 cart.    s(47) = (  0.0000000  0.0000000  1.0000000 )
                  (  1.0000000  0.0000000  0.0000000 )
                  (  0.0000000 -1.0000000  0.0000000 )


      isym = 48     inv. 120 deg rotation - cart. axis [-1,-1,1] 

 cryst.   s(48) = (    -1          1          0      )
                  (     0          1         -1      )
                  (     0          1          0      )

 cart.    s(48) = (  0.0000000  0.0000000  1.0000000 )
                  ( -1.0000000  0.0000000  0.0000000 )
                  (  0.0000000  1.0000000  0.0000000 )


   Cartesian axes

     site n.     atom                  positions (alat units)
         1        Pb     tau(   1) = (   0.0000000   0.0000000   0.0000000  )

   Crystallographic axes

     site n.     atom                  positions (cryst. coord.)
         1        Pb     tau(   1) = (  0.0000000  0.0000000  0.0000000  )

     number of k points=   201  Marzari-Vanderbilt smearing, width (Ry)=  0.0500
                       cart. coord. in units 2pi/alat
        k(    1) = (   0.0000000   0.0000000   0.0000000), wk =   0.0099502
        k(    2) = (  -0.0250000   0.0000000   0.0000000), wk =   0.0099502
        k(    3) = (  -0.0500000   0.0000000   0.0000000), wk =   0.0099502
        k(    4) = (  -0.0750000   0.0000000   0.0000000), wk =   0.0099502
        k(    5) = (  -0.1000000   0.0000000   0.0000000), wk =   0.0099502
        k(    6) = (  -0.1250000   0.0000000   0.0000000), wk =   0.0099502
        k(    7) = (  -0.1500000   0.0000000   0.0000000), wk =   0.0099502
        k(    8) = (  -0.1750000   0.0000000   0.0000000), wk =   0.0099502
        k(    9) = (  -0.2000000   0.0000000   0.0000000), wk =   0.0099502
        k(   10) = (  -0.2250000   0.0000000   0.0000000), wk =   0.0099502
        k(   11) = (  -0.2500000   0.0000000   0.0000000), wk =   0.0099502
        k(   12) = (  -0.2750000   0.0000000   0.0000000), wk =   0.0099502
        k(   13) = (  -0.3000000   0.0000000   0.0000000), wk =   0.0099502
        k(   14) = (  -0.3250000   0.0000000   0.0000000), wk =   0.0099502
        k(   15) = (  -0.3500000   0.0000000   0.0000000), wk =   0.0099502
        k(   16) = (  -0.3750000   0.0000000   0.0000000), wk =   0.0099502
        k(   17) = (  -0.4000000   0.0000000   0.0000000), wk =   0.0099502
        k(   18) = (  -0.4250000   0.0000000   0.0000000), wk =   0.0099502
        k(   19) = (  -0.4500000   0.0000000   0.0000000), wk =   0.0099502
        k(   20) = (  -0.4750000   0.0000000   0.0000000), wk =   0.0099502
        k(   21) = (  -0.5000000   0.0000000   0.0000000), wk =   0.0099502
        k(   22) = (  -0.5250000   0.0000000   0.0000000), wk =   0.0099502
        k(   23) = (  -0.5500000   0.0000000   0.0000000), wk =   0.0099502
        k(   24) = (  -0.5750000   0.0000000   0.0000000), wk =   0.0099502
        k(   25) = (  -0.6000000   0.0000000   0.0000000), wk =   0.0099502
        k(   26) = (  -0.6250000   0.0000000   0.0000000), wk =   0.0099502
        k(   27) = (  -0.6500000   0.0000000   0.0000000), wk =   0.0099502
        k(   28) = (  -0.6750000   0.0000000   0.0000000), wk =   0.0099502
        k(   29) = (  -0.7000000   0.0000000   0.0000000), wk =   0.0099502
        k(   30) = (  -0.7250000   0.0000000   0.0000000), wk =   0.0099502
        k(   31) = (  -0.7500000   0.0000000   0.0000000), wk =   0.0099502
        k(   32) = (  -0.7750000   0.0000000   0.0000000), wk =   0.0099502
        k(   33) = (  -0.8000000   0.0000000   0.0000000), wk =   0.0099502
        k(   34) = (  -0.8250000   0.0000000   0.0000000), wk =   0.0099502
        k(   35) = (  -0.8500000   0.0000000   0.0000000), wk =   0.0099502
        k(   36) = (  -0.8750000   0.0000000   0.0000000), wk =   0.0099502
        k(   37) = (  -0.9000000   0.0000000   0.0000000), wk =   0.0099502
        k(   38) = (  -0.9250000   0.0000000   0.0000000), wk =   0.0099502
        k(   39) = (  -0.9500000   0.0000000   0.0000000), wk =   0.0099502
        k(   40) = (  -0.9750000   0.0000000   0.0000000), wk =   0.0099502
        k(   41) = (  -1.0000000   0.0000000   0.0000000), wk =   0.0099502
        k(   42) = (  -1.0000000   0.0125000   0.0000000), wk =   0.0099502
        k(   43) = (  -1.0000000   0.0250000   0.0000000), wk =   0.0099502
        k(   44) = (  -1.0000000   0.0375000   0.0000000), wk =   0.0099502
        k(   45) = (  -1.0000000   0.0500000   0.0000000), wk =   0.0099502
        k(   46) = (  -1.0000000   0.0625000   0.0000000), wk =   0.0099502
        k(   47) = (  -1.0000000   0.0750000   0.0000000), wk =   0.0099502
        k(   48) = (  -1.0000000   0.0875000   0.0000000), wk =   0.0099502
        k(   49) = (  -1.0000000   0.1000000   0.0000000), wk =   0.0099502
        k(   50) = (  -1.0000000   0.1125000   0.0000000), wk =   0.0099502
        k(   51) = (  -1.0000000   0.1250000   0.0000000), wk =   0.0099502
        k(   52) = (  -1.0000000   0.1375000   0.0000000), wk =   0.0099502
        k(   53) = (  -1.0000000   0.1500000   0.0000000), wk =   0.0099502
        k(   54) = (  -1.0000000   0.1625000   0.0000000), wk =   0.0099502
        k(   55) = (  -1.0000000   0.1750000   0.0000000), wk =   0.0099502
        k(   56) = (  -1.0000000   0.1875000   0.0000000), wk =   0.0099502
        k(   57) = (  -1.0000000   0.2000000   0.0000000), wk =   0.0099502
        k(   58) = (  -1.0000000   0.2125000   0.0000000), wk =   0.0099502
        k(   59) = (  -1.0000000   0.2250000   0.0000000), wk =   0.0099502
        k(   60) = (  -1.0000000   0.2375000   0.0000000), wk =   0.0099502
        k(   61) = (  -1.0000000   0.2500000   0.0000000), wk =   0.0099502
        k(   62) = (  -1.0000000   0.2625000   0.0000000), wk =   0.0099502
        k(   63) = (  -1.0000000   0.2750000   0.0000000), wk =   0.0099502
        k(   64) = (  -1.0000000   0.2875000   0.0000000), wk =   0.0099502
        k(   65) = (  -1.0000000   0.3000000   0.0000000), wk =   0.0099502
        k(   66) = (  -1.0000000   0.3125000   0.0000000), wk =   0.0099502
        k(   67) = (  -1.0000000   0.3250000   0.0000000), wk =   0.0099502
        k(   68) = (  -1.0000000   0.3375000   0.0000000), wk =   0.0099502
        k(   69) = (  -1.0000000   0.3500000   0.0000000), wk =   0.0099502
        k(   70) = (  -1.0000000   0.3625000   0.0000000), wk =   0.0099502
        k(   71) = (  -1.0000000   0.3750000   0.0000000), wk =   0.0099502
        k(   72) = (  -1.0000000   0.3875000   0.0000000), wk =   0.0099502
        k(   73) = (  -1.0000000   0.4000000   0.0000000), wk =   0.0099502
        k(   74) = (  -1.0000000   0.4125000   0.0000000), wk =   0.0099502
        k(   75) = (  -1.0000000   0.4250000   0.0000000), wk =   0.0099502
        k(   76) = (  -1.0000000   0.4375000   0.0000000), wk =   0.0099502
        k(   77) = (  -1.0000000   0.4500000   0.0000000), wk =   0.0099502
        k(   78) = (  -1.0000000   0.4625000   0.0000000), wk =   0.0099502
        k(   79) = (  -1.0000000   0.4750000   0.0000000), wk =   0.0099502
        k(   80) = (  -1.0000000   0.4875000   0.0000000), wk =   0.0099502
        k(   81) = (  -1.0000000   0.5000000   0.0000000), wk =   0.0099502
        k(   82) = (  -0.9875000   0.5000000   0.0125000), wk =   0.0099502
        k(   83) = (  -0.9750000   0.5000000   0.0250000), wk =   0.0099502
        k(   84) = (  -0.9625000   0.5000000   0.0375000), wk =   0.0099502
        k(   85) = (  -0.9500000   0.5000000   0.0500000), wk =   0.0099502
        k(   86) = (  -0.9375000   0.5000000   0.0625000), wk =   0.0099502
        k(   87) = (  -0.9250000   0.5000000   0.0750000), wk =   0.0099502
        k(   88) = (  -0.9125000   0.5000000   0.0875000), wk =   0.0099502
        k(   89) = (  -0.9000000   0.5000000   0.1000000), wk =   0.0099502
        k(   90) = (  -0.8875000   0.5000000   0.1125000), wk =   0.0099502
        k(   91) = (  -0.8750000   0.5000000   0.1250000), wk =   0.0099502
        k(   92) = (  -0.8625000   0.5000000   0.1375000), wk =   0.0099502
        k(   93) = (  -0.8500000   0.5000000   0.1500000), wk =   0.0099502
        k(   94) = (  -0.8375000   0.5000000   0.1625000), wk =   0.0099502
        k(   95) = (  -0.8250000   0.5000000   0.1750000), wk =   0.0099502
        k(   96) = (  -0.8125000   0.5000000   0.1875000), wk =   0.0099502
        k(   97) = (  -0.8000000   0.5000000   0.2000000), wk =   0.0099502
        k(   98) = (  -0.7875000   0.5000000   0.2125000), wk =   0.0099502
        k(   99) = (  -0.7750000   0.5000000   0.2250000), wk =   0.0099502
        k(  100) = (  -0.7625000   0.5000000   0.2375000), wk =   0.0099502
        k(  101) = (  -0.7500000   0.5000000   0.2500000), wk =   0.0099502
        k(  102) = (  -0.7375000   0.5000000   0.2625000), wk =   0.0099502
        k(  103) = (  -0.7250000   0.5000000   0.2750000), wk =   0.0099502
        k(  104) = (  -0.7125000   0.5000000   0.2875000), wk =   0.0099502
        k(  105) = (  -0.7000000   0.5000000   0.3000000), wk =   0.0099502
        k(  106) = (  -0.6875000   0.5000000   0.3125000), wk =   0.0099502
        k(  107) = (  -0.6750000   0.5000000   0.3250000), wk =   0.0099502
        k(  108) = (  -0.6625000   0.5000000   0.3375000), wk =   0.0099502
        k(  109) = (  -0.6500000   0.5000000   0.3500000), wk =   0.0099502
        k(  110) = (  -0.6375000   0.5000000   0.3625000), wk =   0.0099502
        k(  111) = (  -0.6250000   0.5000000   0.3750000), wk =   0.0099502
        k(  112) = (  -0.6125000   0.5000000   0.3875000), wk =   0.0099502
        k(  113) = (  -0.6000000   0.5000000   0.4000000), wk =   0.0099502
        k(  114) = (  -0.5875000   0.5000000   0.4125000), wk =   0.0099502
        k(  115) = (  -0.5750000   0.5000000   0.4250000), wk =   0.0099502
        k(  116) = (  -0.5625000   0.5000000   0.4375000), wk =   0.0099502
        k(  117) = (  -0.5500000   0.5000000   0.4500000), wk =   0.0099502
        k(  118) = (  -0.5375000   0.5000000   0.4625000), wk =   0.0099502
        k(  119) = (  -0.5250000   0.5000000   0.4750000), wk =   0.0099502
        k(  120) = (  -0.5125000   0.5000000   0.4875000), wk =   0.0099502
        k(  121) = (  -0.5000000   0.5000000   0.5000000), wk =   0.0099502
        k(  122) = (  -0.4875000   0.4875000   0.4875000), wk =   0.0099502
        k(  123) = (  -0.4750000   0.4750000   0.4750000), wk =   0.0099502
        k(  124) = (  -0.4625000   0.4625000   0.4625000), wk =   0.0099502
        k(  125) = (  -0.4500000   0.4500000   0.4500000), wk =   0.0099502
        k(  126) = (  -0.4375000   0.4375000   0.4375000), wk =   0.0099502
        k(  127) = (  -0.4250000   0.4250000   0.4250000), wk =   0.0099502
        k(  128) = (  -0.4125000   0.4125000   0.4125000), wk =   0.0099502
        k(  129) = (  -0.4000000   0.4000000   0.4000000), wk =   0.0099502
        k(  130) = (  -0.3875000   0.3875000   0.3875000), wk =   0.0099502
        k(  131) = (  -0.3750000   0.3750000   0.3750000), wk =   0.0099502
        k(  132) = (  -0.3625000   0.3625000   0.3625000), wk =   0.0099502
        k(  133) = (  -0.3500000   0.3500000   0.3500000), wk =   0.0099502
        k(  134) = (  -0.3375000   0.3375000   0.3375000), wk =   0.0099502
        k(  135) = (  -0.3250000   0.3250000   0.3250000), wk =   0.0099502
        k(  136) = (  -0.3125000   0.3125000   0.3125000), wk =   0.0099502
        k(  137) = (  -0.3000000   0.3000000   0.3000000), wk =   0.0099502
        k(  138) = (  -0.2875000   0.2875000   0.2875000), wk =   0.0099502
        k(  139) = (  -0.2750000   0.2750000   0.2750000), wk =   0.0099502
        k(  140) = (  -0.2625000   0.2625000   0.2625000), wk =   0.0099502
        k(  141) = (  -0.2500000   0.2500000   0.2500000), wk =   0.0099502
        k(  142) = (  -0.2375000   0.2375000   0.2375000), wk =   0.0099502
        k(  143) = (  -0.2250000   0.2250000   0.2250000), wk =   0.0099502
        k(  144) = (  -0.2125000   0.2125000   0.2125000), wk =   0.0099502
        k(  145) = (  -0.2000000   0.2000000   0.2000000), wk =   0.0099502
        k(  146) = (  -0.1875000   0.1875000   0.1875000), wk =   0.0099502
        k(  147) = (  -0.1750000   0.1750000   0.1750000), wk =   0.0099502
        k(  148) = (  -0.1625000   0.1625000   0.1625000), wk =   0.0099502
        k(  149) = (  -0.1500000   0.1500000   0.1500000), wk =   0.0099502
        k(  150) = (  -0.1375000   0.1375000   0.1375000), wk =   0.0099502
        k(  151) = (  -0.1250000   0.1250000   0.1250000), wk =   0.0099502
        k(  152) = (  -0.1125000   0.1125000   0.1125000), wk =   0.0099502
        k(  153) = (  -0.1000000   0.1000000   0.1000000), wk =   0.0099502
        k(  154) = (  -0.0875000   0.0875000   0.0875000), wk =   0.0099502
        k(  155) = (  -0.0750000   0.0750000   0.0750000), wk =   0.0099502
        k(  156) = (  -0.0625000   0.0625000   0.0625000), wk =   0.0099502
        k(  157) = (  -0.0500000   0.0500000   0.0500000), wk =   0.0099502
        k(  158) = (  -0.0375000   0.0375000   0.0375000), wk =   0.0099502
        k(  159) = (  -0.0250000   0.0250000   0.0250000), wk =   0.0099502
        k(  160) = (  -0.0125000   0.0125000   0.0125000), wk =   0.0099502
        k(  161) = (   0.0000000   0.0000000   0.0000000), wk =   0.0099502
        k(  162) = (  -0.0187500   0.0187500   0.0000000), wk =   0.0099502
        k(  163) = (  -0.0375000   0.0375000   0.0000000), wk =   0.0099502
        k(  164) = (  -0.0562500   0.0562500   0.0000000), wk =   0.0099502
        k(  165) = (  -0.0750000   0.0750000   0.0000000), wk =   0.0099502
        k(  166) = (  -0.0937500   0.0937500   0.0000000), wk =   0.0099502
        k(  167) = (  -0.1125000   0.1125000   0.0000000), wk =   0.0099502
        k(  168) = (  -0.1312500   0.1312500   0.0000000), wk =   0.0099502
        k(  169) = (  -0.1500000   0.1500000   0.0000000), wk =   0.0099502
        k(  170) = (  -0.1687500   0.1687500   0.0000000), wk =   0.0099502
        k(  171) = (  -0.1875000   0.1875000   0.0000000), wk =   0.0099502
        k(  172) = (  -0.2062500   0.2062500   0.0000000), wk =   0.0099502
        k(  173) = (  -0.2250000   0.2250000   0.0000000), wk =   0.0099502
        k(  174) = (  -0.2437500   0.2437500   0.0000000), wk =   0.0099502
        k(  175) = (  -0.2625000   0.2625000   0.0000000), wk =   0.0099502
        k(  176) = (  -0.2812500   0.2812500   0.0000000), wk =   0.0099502
        k(  177) = (  -0.3000000   0.3000000   0.0000000), wk =   0.0099502
        k(  178) = (  -0.3187500   0.3187500   0.0000000), wk =   0.0099502
        k(  179) = (  -0.3375000   0.3375000   0.0000000), wk =   0.0099502
        k(  180) = (  -0.3562500   0.3562500   0.0000000), wk =   0.0099502
        k(  181) = (  -0.3750000   0.3750000   0.0000000), wk =   0.0099502
        k(  182) = (  -0.3937500   0.3937500   0.0000000), wk =   0.0099502
        k(  183) = (  -0.4125000   0.4125000   0.0000000), wk =   0.0099502
        k(  184) = (  -0.4312500   0.4312500   0.0000000), wk =   0.0099502
        k(  185) = (  -0.4500000   0.4500000   0.0000000), wk =   0.0099502
        k(  186) = (  -0.4687500   0.4687500   0.0000000), wk =   0.0099502
        k(  187) = (  -0.4875000   0.4875000   0.0000000), wk =   0.0099502
        k(  188) = (  -0.5062500   0.5062500   0.0000000), wk =   0.0099502
        k(  189) = (  -0.5250000   0.5250000   0.0000000), wk =   0.0099502
        k(  190) = (  -0.5437500   0.5437500   0.0000000), wk =   0.0099502
        k(  191) = (  -0.5625000   0.5625000   0.0000000), wk =   0.0099502
        k(  192) = (  -0.5812500   0.5812500   0.0000000), wk =   0.0099502
        k(  193) = (  -0.6000000   0.6000000   0.0000000), wk =   0.0099502
        k(  194) = (  -0.6187500   0.6187500   0.0000000), wk =   0.0099502
        k(  195) = (  -0.6375000   0.6375000   0.0000000), wk =   0.0099502
        k(  196) = (  -0.6562500   0.6562500   0.0000000), wk =   0.0099502
        k(  197) = (  -0.6750000   0.6750000   0.0000000), wk =   0.0099502
        k(  198) = (  -0.6937500   0.6937500   0.0000000), wk =   0.0099502
        k(  199) = (  -0.7125000   0.7125000   0.0000000), wk =   0.0099502
        k(  200) = (  -0.7312500   0.7312500   0.0000000), wk =   0.0099502
        k(  201) = (  -0.7500000   0.7500000   0.0000000), wk =   0.0099502

                       cryst. coord.
        k(    1) = (   0.0000000   0.0000000   0.0000000), wk =   0.0099502
        k(    2) = (   0.0125000   0.0000000   0.0125000), wk =   0.0099502
        k(    3) = (   0.0250000   0.0000000   0.0250000), wk =   0.0099502
        k(    4) = (   0.0375000   0.0000000   0.0375000), wk =   0.0099502
        k(    5) = (   0.0500000   0.0000000   0.0500000), wk =   0.0099502
        k(    6) = (   0.0625000   0.0000000   0.0625000), wk =   0.0099502
        k(    7) = (   0.0750000   0.0000000   0.0750000), wk =   0.0099502
        k(    8) = (   0.0875000   0.0000000   0.0875000), wk =   0.0099502
        k(    9) = (   0.1000000   0.0000000   0.1000000), wk =   0.0099502
        k(   10) = (   0.1125000   0.0000000   0.1125000), wk =   0.0099502
        k(   11) = (   0.1250000   0.0000000   0.1250000), wk =   0.0099502
        k(   12) = (   0.1375000   0.0000000   0.1375000), wk =   0.0099502
        k(   13) = (   0.1500000   0.0000000   0.1500000), wk =   0.0099502
        k(   14) = (   0.1625000   0.0000000   0.1625000), wk =   0.0099502
        k(   15) = (   0.1750000   0.0000000   0.1750000), wk =   0.0099502
        k(   16) = (   0.1875000   0.0000000   0.1875000), wk =   0.0099502
        k(   17) = (   0.2000000   0.0000000   0.2000000), wk =   0.0099502
        k(   18) = (   0.2125000   0.0000000   0.2125000), wk =   0.0099502
        k(   19) = (   0.2250000   0.0000000   0.2250000), wk =   0.0099502
        k(   20) = (   0.2375000   0.0000000   0.2375000), wk =   0.0099502
        k(   21) = (   0.2500000   0.0000000   0.2500000), wk =   0.0099502
        k(   22) = (   0.2625000   0.0000000   0.2625000), wk =   0.0099502
        k(   23) = (   0.2750000   0.0000000   0.2750000), wk =   0.0099502
        k(   24) = (   0.2875000   0.0000000   0.2875000), wk =   0.0099502
        k(   25) = (   0.3000000   0.0000000   0.3000000), wk =   0.0099502
        k(   26) = (   0.3125000   0.0000000   0.3125000), wk =   0.0099502
        k(   27) = (   0.3250000   0.0000000   0.3250000), wk =   0.0099502
        k(   28) = (   0.3375000   0.0000000   0.3375000), wk =   0.0099502
        k(   29) = (   0.3500000   0.0000000   0.3500000), wk =   0.0099502
        k(   30) = (   0.3625000   0.0000000   0.3625000), wk =   0.0099502
        k(   31) = (   0.3750000   0.0000000   0.3750000), wk =   0.0099502
        k(   32) = (   0.3875000   0.0000000   0.3875000), wk =   0.0099502
        k(   33) = (   0.4000000   0.0000000   0.4000000), wk =   0.0099502
        k(   34) = (   0.4125000   0.0000000   0.4125000), wk =   0.0099502
        k(   35) = (   0.4250000   0.0000000   0.4250000), wk =   0.0099502
        k(   36) = (   0.4375000   0.0000000   0.4375000), wk =   0.0099502
        k(   37) = (   0.4500000   0.0000000   0.4500000), wk =   0.0099502
        k(   38) = (   0.4625000   0.0000000   0.4625000), wk =   0.0099502
        k(   39) = (   0.4750000   0.0000000   0.4750000), wk =   0.0099502
        k(   40) = (   0.4875000   0.0000000   0.4875000), wk =   0.0099502
        k(   41) = (   0.5000000   0.0000000   0.5000000), wk =   0.0099502
        k(   42) = (   0.5000000   0.0062500   0.5062500), wk =   0.0099502
        k(   43) = (   0.5000000   0.0125000   0.5125000), wk =   0.0099502
        k(   44) = (   0.5000000   0.0187500   0.5187500), wk =   0.0099502
        k(   45) = (   0.5000000   0.0250000   0.5250000), wk =   0.0099502
        k(   46) = (   0.5000000   0.0312500   0.5312500), wk =   0.0099502
        k(   47) = (   0.5000000   0.0375000   0.5375000), wk =   0.0099502
        k(   48) = (   0.5000000   0.0437500   0.5437500), wk =   0.0099502
        k(   49) = (   0.5000000   0.0500000   0.5500000), wk =   0.0099502
        k(   50) = (   0.5000000   0.0562500   0.5562500), wk =   0.0099502
        k(   51) = (   0.5000000   0.0625000   0.5625000), wk =   0.0099502
        k(   52) = (   0.5000000   0.0687500   0.5687500), wk =   0.0099502
        k(   53) = (   0.5000000   0.0750000   0.5750000), wk =   0.0099502
        k(   54) = (   0.5000000   0.0812500   0.5812500), wk =   0.0099502
        k(   55) = (   0.5000000   0.0875000   0.5875000), wk =   0.0099502
        k(   56) = (   0.5000000   0.0937500   0.5937500), wk =   0.0099502
        k(   57) = (   0.5000000   0.1000000   0.6000000), wk =   0.0099502
        k(   58) = (   0.5000000   0.1062500   0.6062500), wk =   0.0099502
        k(   59) = (   0.5000000   0.1125000   0.6125000), wk =   0.0099502
        k(   60) = (   0.5000000   0.1187500   0.6187500), wk =   0.0099502
        k(   61) = (   0.5000000   0.1250000   0.6250000), wk =   0.0099502
        k(   62) = (   0.5000000   0.1312500   0.6312500), wk =   0.0099502
        k(   63) = (   0.5000000   0.1375000   0.6375000), wk =   0.0099502
        k(   64) = (   0.5000000   0.1437500   0.6437500), wk =   0.0099502
        k(   65) = (   0.5000000   0.1500000   0.6500000), wk =   0.0099502
        k(   66) = (   0.5000000   0.1562500   0.6562500), wk =   0.0099502
        k(   67) = (   0.5000000   0.1625000   0.6625000), wk =   0.0099502
        k(   68) = (   0.5000000   0.1687500   0.6687500), wk =   0.0099502
        k(   69) = (   0.5000000   0.1750000   0.6750000), wk =   0.0099502
        k(   70) = (   0.5000000   0.1812500   0.6812500), wk =   0.0099502
        k(   71) = (   0.5000000   0.1875000   0.6875000), wk =   0.0099502
        k(   72) = (   0.5000000   0.1937500   0.6937500), wk =   0.0099502
        k(   73) = (   0.5000000   0.2000000   0.7000000), wk =   0.0099502
        k(   74) = (   0.5000000   0.2062500   0.7062500), wk =   0.0099502
        k(   75) = (   0.5000000   0.2125000   0.7125000), wk =   0.0099502
        k(   76) = (   0.5000000   0.2187500   0.7187500), wk =   0.0099502
        k(   77) = (   0.5000000   0.2250000   0.7250000), wk =   0.0099502
        k(   78) = (   0.5000000   0.2312500   0.7312500), wk =   0.0099502
        k(   79) = (   0.5000000   0.2375000   0.7375000), wk =   0.0099502
        k(   80) = (   0.5000000   0.2437500   0.7437500), wk =   0.0099502
        k(   81) = (   0.5000000   0.2500000   0.7500000), wk =   0.0099502
        k(   82) = (   0.5000000   0.2562500   0.7437500), wk =   0.0099502
        k(   83) = (   0.5000000   0.2625000   0.7375000), wk =   0.0099502
        k(   84) = (   0.5000000   0.2687500   0.7312500), wk =   0.0099502
        k(   85) = (   0.5000000   0.2750000   0.7250000), wk =   0.0099502
        k(   86) = (   0.5000000   0.2812500   0.7187500), wk =   0.0099502
        k(   87) = (   0.5000000   0.2875000   0.7125000), wk =   0.0099502
        k(   88) = (   0.5000000   0.2937500   0.7062500), wk =   0.0099502
        k(   89) = (   0.5000000   0.3000000   0.7000000), wk =   0.0099502
        k(   90) = (   0.5000000   0.3062500   0.6937500), wk =   0.0099502
        k(   91) = (   0.5000000   0.3125000   0.6875000), wk =   0.0099502
        k(   92) = (   0.5000000   0.3187500   0.6812500), wk =   0.0099502
        k(   93) = (   0.5000000   0.3250000   0.6750000), wk =   0.0099502
        k(   94) = (   0.5000000   0.3312500   0.6687500), wk =   0.0099502
        k(   95) = (   0.5000000   0.3375000   0.6625000), wk =   0.0099502
        k(   96) = (   0.5000000   0.3437500   0.6562500), wk =   0.0099502
        k(   97) = (   0.5000000   0.3500000   0.6500000), wk =   0.0099502
        k(   98) = (   0.5000000   0.3562500   0.6437500), wk =   0.0099502
        k(   99) = (   0.5000000   0.3625000   0.6375000), wk =   0.0099502
        k(  100) = (   0.5000000   0.3687500   0.6312500), wk =   0.0099502
        k(  101) = (   0.5000000   0.3750000   0.6250000), wk =   0.0099502
        k(  102) = (   0.5000000   0.3812500   0.6187500), wk =   0.0099502
        k(  103) = (   0.5000000   0.3875000   0.6125000), wk =   0.0099502
        k(  104) = (   0.5000000   0.3937500   0.6062500), wk =   0.0099502
        k(  105) = (   0.5000000   0.4000000   0.6000000), wk =   0.0099502
        k(  106) = (   0.5000000   0.4062500   0.5937500), wk =   0.0099502
        k(  107) = (   0.5000000   0.4125000   0.5875000), wk =   0.0099502
        k(  108) = (   0.5000000   0.4187500   0.5812500), wk =   0.0099502
        k(  109) = (   0.5000000   0.4250000   0.5750000), wk =   0.0099502
        k(  110) = (   0.5000000   0.4312500   0.5687500), wk =   0.0099502
        k(  111) = (   0.5000000   0.4375000   0.5625000), wk =   0.0099502
        k(  112) = (   0.5000000   0.4437500   0.5562500), wk =   0.0099502
        k(  113) = (   0.5000000   0.4500000   0.5500000), wk =   0.0099502
        k(  114) = (   0.5000000   0.4562500   0.5437500), wk =   0.0099502
        k(  115) = (   0.5000000   0.4625000   0.5375000), wk =   0.0099502
        k(  116) = (   0.5000000   0.4687500   0.5312500), wk =   0.0099502
        k(  117) = (   0.5000000   0.4750000   0.5250000), wk =   0.0099502
        k(  118) = (   0.5000000   0.4812500   0.5187500), wk =   0.0099502
        k(  119) = (   0.5000000   0.4875000   0.5125000), wk =   0.0099502
        k(  120) = (   0.5000000   0.4937500   0.5062500), wk =   0.0099502
        k(  121) = (   0.5000000   0.5000000   0.5000000), wk =   0.0099502
        k(  122) = (   0.4875000   0.4875000   0.4875000), wk =   0.0099502
        k(  123) = (   0.4750000   0.4750000   0.4750000), wk =   0.0099502
        k(  124) = (   0.4625000   0.4625000   0.4625000), wk =   0.0099502
        k(  125) = (   0.4500000   0.4500000   0.4500000), wk =   0.0099502
        k(  126) = (   0.4375000   0.4375000   0.4375000), wk =   0.0099502
        k(  127) = (   0.4250000   0.4250000   0.4250000), wk =   0.0099502
        k(  128) = (   0.4125000   0.4125000   0.4125000), wk =   0.0099502
        k(  129) = (   0.4000000   0.4000000   0.4000000), wk =   0.0099502
        k(  130) = (   0.3875000   0.3875000   0.3875000), wk =   0.0099502
        k(  131) = (   0.3750000   0.3750000   0.3750000), wk =   0.0099502
        k(  132) = (   0.3625000   0.3625000   0.3625000), wk =   0.0099502
        k(  133) = (   0.3500000   0.3500000   0.3500000), wk =   0.0099502
        k(  134) = (   0.3375000   0.3375000   0.3375000), wk =   0.0099502
        k(  135) = (   0.3250000   0.3250000   0.3250000), wk =   0.0099502
        k(  136) = (   0.3125000   0.3125000   0.3125000), wk =   0.0099502
        k(  137) = (   0.3000000   0.3000000   0.3000000), wk =   0.0099502
        k(  138) = (   0.2875000   0.2875000   0.2875000), wk =   0.0099502
        k(  139) = (   0.2750000   0.2750000   0.2750000), wk =   0.0099502
        k(  140) = (   0.2625000   0.2625000   0.2625000), wk =   0.0099502
        k(  141) = (   0.2500000   0.2500000   0.2500000), wk =   0.0099502
        k(  142) = (   0.2375000   0.2375000   0.2375000), wk =   0.0099502
        k(  143) = (   0.2250000   0.2250000   0.2250000), wk =   0.0099502
        k(  144) = (   0.2125000   0.2125000   0.2125000), wk =   0.0099502
        k(  145) = (   0.2000000   0.2000000   0.2000000), wk =   0.0099502
        k(  146) = (   0.1875000   0.1875000   0.1875000), wk =   0.0099502
        k(  147) = (   0.1750000   0.1750000   0.1750000), wk =   0.0099502
        k(  148) = (   0.1625000   0.1625000   0.1625000), wk =   0.0099502
        k(  149) = (   0.1500000   0.1500000   0.1500000), wk =   0.0099502
        k(  150) = (   0.1375000   0.1375000   0.1375000), wk =   0.0099502
        k(  151) = (   0.1250000   0.1250000   0.1250000), wk =   0.0099502
        k(  152) = (   0.1125000   0.1125000   0.1125000), wk =   0.0099502
        k(  153) = (   0.1000000   0.1000000   0.1000000), wk =   0.0099502
        k(  154) = (   0.0875000   0.0875000   0.0875000), wk =   0.0099502
        k(  155) = (   0.0750000   0.0750000   0.0750000), wk =   0.0099502
        k(  156) = (   0.0625000   0.0625000   0.0625000), wk =   0.0099502
        k(  157) = (   0.0500000   0.0500000   0.0500000), wk =   0.0099502
        k(  158) = (   0.0375000   0.0375000   0.0375000), wk =   0.0099502
        k(  159) = (   0.0250000   0.0250000   0.0250000), wk =   0.0099502
        k(  160) = (   0.0125000   0.0125000   0.0125000), wk =   0.0099502
        k(  161) = (   0.0000000   0.0000000   0.0000000), wk =   0.0099502
        k(  162) = (   0.0093750   0.0093750   0.0187500), wk =   0.0099502
        k(  163) = (   0.0187500   0.0187500   0.0375000), wk =   0.0099502
        k(  164) = (   0.0281250   0.0281250   0.0562500), wk =   0.0099502
        k(  165) = (   0.0375000   0.0375000   0.0750000), wk =   0.0099502
        k(  166) = (   0.0468750   0.0468750   0.0937500), wk =   0.0099502
        k(  167) = (   0.0562500   0.0562500   0.1125000), wk =   0.0099502
        k(  168) = (   0.0656250   0.0656250   0.1312500), wk =   0.0099502
        k(  169) = (   0.0750000   0.0750000   0.1500000), wk =   0.0099502
        k(  170) = (   0.0843750   0.0843750   0.1687500), wk =   0.0099502
        k(  171) = (   0.0937500   0.0937500   0.1875000), wk =   0.0099502
        k(  172) = (   0.1031250   0.1031250   0.2062500), wk =   0.0099502
        k(  173) = (   0.1125000   0.1125000   0.2250000), wk =   0.0099502
        k(  174) = (   0.1218750   0.1218750   0.2437500), wk =   0.0099502
        k(  175) = (   0.1312500   0.1312500   0.2625000), wk =   0.0099502
        k(  176) = (   0.1406250   0.1406250   0.2812500), wk =   0.0099502
        k(  177) = (   0.1500000   0.1500000   0.3000000), wk =   0.0099502
        k(  178) = (   0.1593750   0.1593750   0.3187500), wk =   0.0099502
        k(  179) = (   0.1687500   0.1687500   0.3375000), wk =   0.0099502
        k(  180) = (   0.1781250   0.1781250   0.3562500), wk =   0.0099502
        k(  181) = (   0.1875000   0.1875000   0.3750000), wk =   0.0099502
        k(  182) = (   0.1968750   0.1968750   0.3937500), wk =   0.0099502
        k(  183) = (   0.2062500   0.2062500   0.4125000), wk =   0.0099502
        k(  184) = (   0.2156250   0.2156250   0.4312500), wk =   0.0099502
        k(  185) = (   0.2250000   0.2250000   0.4500000), wk =   0.0099502
        k(  186) = (   0.2343750   0.2343750   0.4687500), wk =   0.0099502
        k(  187) = (   0.2437500   0.2437500   0.4875000), wk =   0.0099502
        k(  188) = (   0.2531250   0.2531250   0.5062500), wk =   0.0099502
        k(  189) = (   0.2625000   0.2625000   0.5250000), wk =   0.0099502
        k(  190) = (   0.2718750   0.2718750   0.5437500), wk =   0.0099502
        k(  191) = (   0.2812500   0.2812500   0.5625000), wk =   0.0099502
        k(  192) = (   0.2906250   0.2906250   0.5812500), wk =   0.0099502
        k(  193) = (   0.3000000   0.3000000   0.6000000), wk =   0.0099502
        k(  194) = (   0.3093750   0.3093750   0.6187500), wk =   0.0099502
        k(  195) = (   0.3187500   0.3187500   0.6375000), wk =   0.0099502
        k(  196) = (   0.3281250   0.3281250   0.6562500), wk =   0.0099502
        k(  197) = (   0.3375000   0.3375000   0.6750000), wk =   0.0099502
        k(  198) = (   0.3468750   0.3468750   0.6937500), wk =   0.0099502
        k(  199) = (   0.3562500   0.3562500   0.7125000), wk =   0.0099502
        k(  200) = (   0.3656250   0.3656250   0.7312500), wk =   0.0099502
        k(  201) = (   0.3750000   0.3750000   0.7500000), wk =   0.0099502

     Dense  grid:     4477 G-vectors     FFT dimensions: (  24,  24,  24)

     Dynamical RAM for                 wfc:       0.01 MB

     Dynamical RAM for     wfc (w. buffer):       0.01 MB

     Dynamical RAM for           str. fact:       0.01 MB

     Dynamical RAM for           local pot:       0.00 MB

     Dynamical RAM for          nlocal pot:       0.02 MB

     Dynamical RAM for                qrad:       0.88 MB

     Dynamical RAM for          rho,v,vnew:       0.07 MB

     Dynamical RAM for           G-vectors:       0.04 MB

     Dynamical RAM for          h,s,v(r/c):       0.02 MB

     Dynamical RAM for          <psi|beta>:       0.00 MB

     Dynamical RAM for                 psi:       0.02 MB

     Dynamical RAM for                hpsi:       0.02 MB

     Dynamical RAM for      wfcinit/wfcrot:       0.02 MB

     Estimated static dynamical RAM per process >       1.10 MB

     Estimated max dynamical RAM per process >       1.17 MB

     Estimated total dynamical RAM >      74.63 MB

     The potential is recalculated from file :
     ./tmp/pb.save/charge-density

     Starting wfcs are    9 randomized atomic wfcs +    1 random wfcs

     Band Structure Calculation
     Davidson diagonalization with overlap

     Computing kpt #:     1  of    26 on this pool
     total cpu time spent up to now is        1.1 secs

     Computing kpt #:     2  of    26 on this pool
     total cpu time spent up to now is        1.1 secs

     Computing kpt #:     3  of    26 on this pool
     total cpu time spent up to now is        1.1 secs

     Computing kpt #:     4  of    26 on this pool
     total cpu time spent up to now is        1.2 secs

     Computing kpt #:     5  of    26 on this pool
     total cpu time spent up to now is        1.2 secs

     Computing kpt #:     6  of    26 on this pool
     total cpu time spent up to now is        1.2 secs

     Computing kpt #:     7  of    26 on this pool
     total cpu time spent up to now is        1.2 secs

     Computing kpt #:     8  of    26 on this pool
     total cpu time spent up to now is        1.3 secs

     Computing kpt #:     9  of    26 on this pool
     total cpu time spent up to now is        1.3 secs

     Computing kpt #:    10  of    26 on this pool
     total cpu time spent up to now is        1.3 secs

     Computing kpt #:    11  of    26 on this pool
     total cpu time spent up to now is        1.4 secs

     Computing kpt #:    12  of    26 on this pool
     total cpu time spent up to now is        1.4 secs

     Computing kpt #:    13  of    26 on this pool
     total cpu time spent up to now is        1.4 secs

     Computing kpt #:    14  of    26 on this pool
     total cpu time spent up to now is        1.4 secs

     Computing kpt #:    15  of    26 on this pool
     total cpu time spent up to now is        1.5 secs

     Computing kpt #:    16  of    26 on this pool
     total cpu time spent up to now is        1.5 secs

     Computing kpt #:    17  of    26 on this pool
     total cpu time spent up to now is        1.5 secs

     Computing kpt #:    18  of    26 on this pool
     total cpu time spent up to now is        1.6 secs

     Computing kpt #:    19  of    26 on this pool
     total cpu time spent up to now is        1.6 secs

     Computing kpt #:    20  of    26 on this pool
     total cpu time spent up to now is        1.6 secs

     Computing kpt #:    21  of    26 on this pool
     total cpu time spent up to now is        1.6 secs

     Computing kpt #:    22  of    26 on this pool
     total cpu time spent up to now is        1.7 secs

     Computing kpt #:    23  of    26 on this pool
     total cpu time spent up to now is        1.7 secs

     Computing kpt #:    24  of    26 on this pool
     total cpu time spent up to now is        1.7 secs

     Computing kpt #:    25  of    26 on this pool
     total cpu time spent up to now is        1.8 secs

     Computing kpt #:    26  of    26 on this pool
     total cpu time spent up to now is        1.8 secs

     ethr =  7.14E-13,  avg # of iterations = 32.6

     total cpu time spent up to now is        1.8 secs

     End of band structure calculation

          k = 0.0000 0.0000 0.0000 (   537 PWs)   bands (ev):

    -5.3681  -5.3681  -5.3681  -5.2040  -5.2040  -0.1764  19.2826  19.2826
    19.2826  21.8700

          k =-0.0250 0.0000 0.0000 (   537 PWs)   bands (ev):

    -5.3683  -5.3674  -5.3674  -5.2039  -5.2037  -0.1724  19.2500  19.2626
    19.2626  21.8516

          k =-0.0500 0.0000 0.0000 (   537 PWs)   bands (ev):

    -5.3687  -5.3651  -5.3651  -5.2037  -5.2027  -0.1601  19.1557  19.2036
    19.2036  21.7986

          k =-0.0750 0.0000 0.0000 (   537 PWs)   bands (ev):

    -5.3693  -5.3614  -5.3614  -5.2033  -5.2011  -0.1398  19.0085  19.1091
    19.1091  21.7162

          k =-0.1000 0.0000 0.0000 (   541 PWs)   bands (ev):

    -5.3870  -5.3870  -5.3760  -5.2392  -5.1989  -0.1113  18.8194  18.9832
    18.9832  21.6109

          k =-0.1250 0.0000 0.0000 (   540 PWs)   bands (ev):

    -5.3817  -5.3817  -5.3775  -5.2147  -5.1961  -0.0746  18.5989  18.8318
    18.8318  21.4894

          k =-0.1500 0.0000 0.0000 (   544 PWs)   bands (ev):

    -5.3840  -5.3840  -5.3792  -5.3045  -5.1930  -0.0299  18.3550  18.6597
    18.6597  21.3572

          k =-0.1750 0.0000 0.0000 (   544 PWs)   bands (ev):

    -5.3811  -5.3764  -5.3764  -5.3097  -5.1890   0.0231  18.0943  18.4719
    18.4719  21.2184

          k =-0.2000 0.0000 0.0000 (   548 PWs)   bands (ev):

    -5.4071  -5.4071  -5.4016  -5.3229  -5.1845   0.0841  17.8210  18.2714
    18.2714  21.0745

          k =-0.2250 0.0000 0.0000 (   548 PWs)   bands (ev):

    -5.4047  -5.3983  -5.3983  -5.3281  -5.1793   0.1534  17.5381  18.0635
    18.0635  20.9309

          k =-0.2500 0.0000 0.0000 (   556 PWs)   bands (ev):

    -5.4719  -5.4204  -5.4204  -5.3562  -5.2330   0.2308  17.2476  17.8494
    17.8494  20.7793

          k =-0.2750 0.0000 0.0000 (   556 PWs)   bands (ev):

    -5.4765  -5.4092  -5.4092  -5.3621  -5.2280   0.3164  16.9508  17.6331
    17.6331  20.6374

          k =-0.3000 0.0000 0.0000 (   556 PWs)   bands (ev):

    -5.4813  -5.3970  -5.3970  -5.3678  -5.2225   0.4101  16.6484  17.4157
    17.4157  20.4982

          k =-0.3250 0.0000 0.0000 (   564 PWs)   bands (ev):

    -5.5738  -5.4377  -5.4377  -5.3816  -5.2322   0.5119  16.3408  17.1970
    17.1970  20.3479

          k =-0.3500 0.0000 0.0000 (   564 PWs)   bands (ev):

    -5.5810  -5.4240  -5.4240  -5.3875  -5.2262   0.6218  16.0280  16.9818
    16.9818  20.2151

          k =-0.3750 0.0000 0.0000 (   564 PWs)   bands (ev):

    -5.5882  -5.4094  -5.4094  -5.3933  -5.2198   0.7397  15.7102  16.7694
    16.7694  20.0866

          k =-0.4000 0.0000 0.0000 (   564 PWs)   bands (ev):

    -5.5955  -5.3990  -5.3939  -5.3939  -5.2131   0.8656  15.3874  16.5609
    16.5609  19.9627

          k =-0.4250 0.0000 0.0000 (   568 PWs)   bands (ev):

    -5.6040  -5.4793  -5.3956  -5.3956  -5.2060   0.9989  15.0597  16.3561
    16.3561  19.8435

          k =-0.4500 0.0000 0.0000 (   568 PWs)   bands (ev):

    -5.6112  -5.4875  -5.3793  -5.3793  -5.1985   1.1404  14.7271  16.1573
    16.1573  19.7295

          k =-0.4750 0.0000 0.0000 (   560 PWs)   bands (ev):

    -5.6170  -5.3712  -5.3209  -5.3209  -5.1884   1.2908  14.3903  15.9658
    15.9658  19.6209

          k =-0.5000 0.0000 0.0000 (   560 PWs)   bands (ev):

    -5.6240  -5.3839  -5.3052  -5.3052  -5.1805   1.4476  14.0492  15.7788
    15.7788  19.5172

          k =-0.5250 0.0000 0.0000 (   560 PWs)   bands (ev):

    -5.6309  -5.3961  -5.2889  -5.2889  -5.1724   1.6118  13.7045  15.5986
    15.5986  19.3274

          k =-0.5500 0.0000 0.0000 (   560 PWs)   bands (ev):

    -5.6375  -5.4078  -5.2720  -5.2720  -5.1640   1.7831  13.3570  15.4256
    15.4256  19.0869

          k =-0.5750 0.0000 0.0000 (   564 PWs)   bands (ev):

    -5.6439  -5.4219  -5.2935  -5.2935  -5.1792   1.9613  13.0074  15.2591
    15.2591  18.8637

          k =-0.6000 0.0000 0.0000 (   564 PWs)   bands (ev):

    -5.6499  -5.4323  -5.2769  -5.2769  -5.1714   2.1463  12.6567  15.1014
    15.1014  18.6581

          k =-0.6250 0.0000 0.0000 (   564 PWs)   bands (ev):

    -5.6556  -5.4420  -5.2602  -5.2602  -5.1636   2.3375  12.3058  14.9519
    14.9519  18.4692

          k =-0.6500 0.0000 0.0000 (   556 PWs)   bands (ev):

    -5.6292  -5.4404  -5.1628  -5.1628  -5.1461   2.5352  11.9561  14.8125
    14.8125  18.2979

          k =-0.6750 0.0000 0.0000 (   556 PWs)   bands (ev):

    -5.6354  -5.4485  -5.1482  -5.1482  -5.1385   2.7378  11.6085  14.6798
    14.6798  18.1402

          k =-0.7000 0.0000 0.0000 (   556 PWs)   bands (ev):

    -5.6411  -5.4557  -5.1335  -5.1335  -5.1309   2.9450  11.2643  14.5561
    14.5561  17.9972

          k =-0.7250 0.0000 0.0000 (   568 PWs)   bands (ev):

    -5.6498  -5.5183  -5.2226  -5.2010  -5.2010   3.1551  10.9247  14.4405
    14.4405  17.8582

          k =-0.7500 0.0000 0.0000 (   568 PWs)   bands (ev):

    -5.6546  -5.5245  -5.2167  -5.1892  -5.1892   3.3690  10.5920  14.3353
    14.3353  17.7422

          k =-0.7750 0.0000 0.0000 (   560 PWs)   bands (ev):

    -5.6500  -5.4706  -5.2055  -5.1109  -5.1109   3.5860  10.2682  14.2402
    14.2402  17.6497

          k =-0.8000 0.0000 0.0000 (   560 PWs)   bands (ev):

    -5.6540  -5.4763  -5.2001  -5.1023  -5.1023   3.8009   9.9547  14.1540
    14.1540  17.5588

          k =-0.8250 0.0000 0.0000 (   560 PWs)   bands (ev):

    -5.6572  -5.4809  -5.1947  -5.0939  -5.0939   4.0129   9.6547  14.0777
    14.0777  17.4797

          k =-0.8500 0.0000 0.0000 (   560 PWs)   bands (ev):

    -5.6598  -5.4842  -5.1894  -5.0858  -5.0858   4.2188   9.3720  14.0112
    14.0112  17.4121

          k =-0.8750 0.0000 0.0000 (   560 PWs)   bands (ev):

    -5.6616  -5.4862  -5.1843  -5.0781  -5.0781   4.4141   9.1113  13.9548
    13.9548  17.3556

          k =-0.9000 0.0000 0.0000 (   560 PWs)   bands (ev):

    -5.6628  -5.4868  -5.1793  -5.0707  -5.0707   4.5928   8.8786  13.9086
    13.9086  17.3100

          k =-0.9250 0.0000 0.0000 (   560 PWs)   bands (ev):

    -5.6632  -5.4860  -5.1745  -5.0638  -5.0638   4.7473   8.6821  13.8725
    13.8725  17.2750

          k =-0.9500 0.0000 0.0000 (   568 PWs)   bands (ev):

    -5.6836  -5.4852  -5.2090  -5.1356  -5.1356   4.8680   8.5309  13.8467
    13.8467  17.2502

          k =-0.9750 0.0000 0.0000 (   560 PWs)   bands (ev):

    -5.6317  -5.5172  -5.1246  -5.0734  -5.0734   4.9444   8.4349  13.8312
    13.8312  17.2296

          k =-1.0000 0.0000 0.0000 (   556 PWs)   bands (ev):

    -5.6320  -5.4252  -5.1246  -5.0682  -5.0682   4.9744   8.4019  13.8260
    13.8260  17.2422

          k =-1.0000 0.0125 0.0000 (   556 PWs)   bands (ev):

    -5.6318  -5.4251  -5.1246  -5.0684  -5.0682   4.9746   8.4032  13.8208
    13.8210  17.2501

          k =-1.0000 0.0250 0.0000 (   560 PWs)   bands (ev):

    -5.6346  -5.4267  -5.1678  -5.1292  -5.0693   4.9750   8.4070  13.8052
    13.8061  17.2731

          k =-1.0000 0.0375 0.0000 (   564 PWs)   bands (ev):

    -5.6785  -5.4279  -5.1687  -5.1621  -5.1001   4.9758   8.4135  13.7795
    13.7816  17.3113

          k =-1.0000 0.0500 0.0000 (   562 PWs)   bands (ev):

    -5.6776  -5.4160  -5.1624  -5.1310  -5.1005   4.9769   8.4226  13.7440
    13.7484  17.3667

          k =-1.0000 0.0625 0.0000 (   558 PWs)   bands (ev):

    -5.6659  -5.4142  -5.1136  -5.0970  -5.0934   4.9784   8.4343  13.6995
    13.7073  17.4335

          k =-1.0000 0.0750 0.0000 (   558 PWs)   bands (ev):

    -5.6642  -5.4129  -5.1157  -5.1016  -5.0939   4.9800   8.4485  13.6465
    13.6591  17.5129

          k =-1.0000 0.0875 0.0000 (   556 PWs)   bands (ev):

    -5.6621  -5.3922  -5.1157  -5.0942  -5.0759   4.9826   8.4654  13.5856
    13.6054  17.6071

          k =-1.0000 0.1000 0.0000 (   556 PWs)   bands (ev):

    -5.6595  -5.3907  -5.1179  -5.0945  -5.0814   4.9848   8.4847  13.5176
    13.5463  17.7087

          k =-1.0000 0.1125 0.0000 (   556 PWs)   bands (ev):

    -5.6565  -5.3889  -5.1202  -5.0948  -5.0872   4.9872   8.5067  13.4433
    13.4833  17.8200

          k =-1.0000 0.1250 0.0000 (   556 PWs)   bands (ev):

    -5.6530  -5.3868  -5.1225  -5.0950  -5.0933   4.9898   8.5311  13.3634
    13.4170  17.9401

          k =-1.0000 0.1375 0.0000 (   556 PWs)   bands (ev):

    -5.6490  -5.3844  -5.1248  -5.0996  -5.0951   4.9927   8.5581  13.2785
    13.3485  18.0682

          k =-1.0000 0.1500 0.0000 (   556 PWs)   bands (ev):

    -5.6447  -5.3818  -5.1272  -5.1062  -5.0952   4.9957   8.5876  13.1894
    13.2783  18.2037

          k =-1.0000 0.1625 0.0000 (   556 PWs)   bands (ev):

    -5.6399  -5.3790  -5.1295  -5.1130  -5.0952   4.9990   8.6196  13.0965
    13.2071  18.3457

          k =-1.0000 0.1750 0.0000 (   560 PWs)   bands (ev):

    -5.6252  -5.4704  -5.1561  -5.1155  -5.0924   5.0001   8.6542  13.0008
    13.1315  18.4800

          k =-1.0000 0.1875 0.0000 (   560 PWs)   bands (ev):

    -5.6194  -5.4676  -5.1586  -5.1227  -5.0930   5.0037   8.6911  12.9021
    13.0597  18.6340

          k =-1.0000 0.2000 0.0000 (   560 PWs)   bands (ev):

    -5.6132  -5.4646  -5.1611  -5.1300  -5.0936   5.0075   8.7305  12.8012
    12.9884  18.7930

          k =-1.0000 0.2125 0.0000 (   564 PWs)   bands (ev):

    -5.6242  -5.4820  -5.2286  -5.1422  -5.0944   5.0113   8.7723  12.6978
    12.9178  18.9518

          k =-1.0000 0.2250 0.0000 (   564 PWs)   bands (ev):

    -5.6176  -5.4785  -5.2329  -5.1500  -5.0949   5.0153   8.8165  12.5936
    12.8487  19.1198

          k =-1.0000 0.2375 0.0000 (   564 PWs)   bands (ev):

    -5.6106  -5.4748  -5.2373  -5.1580  -5.0953   5.0193   8.8631  12.4882
    12.7812  19.2916

          k =-1.0000 0.2500 0.0000 (   564 PWs)   bands (ev):

    -5.6033  -5.4709  -5.2417  -5.1662  -5.0956   5.0234   8.9121  12.3819
    12.7155  19.4672

          k =-1.0000 0.2625 0.0000 (   560 PWs)   bands (ev):

    -5.5609  -5.4521  -5.2069  -5.1588  -5.0931   5.0276   8.9637  12.2767
    12.6521  19.6487

          k =-1.0000 0.2750 0.0000 (   560 PWs)   bands (ev):

    -5.5536  -5.4486  -5.2114  -5.1676  -5.0934   5.0318   9.0173  12.1695
    12.5907  19.8306

          k =-1.0000 0.2875 0.0000 (   560 PWs)   bands (ev):

    -5.5458  -5.4450  -5.2159  -5.1765  -5.0936   5.0359   9.0732  12.0621
    12.5317  20.0153

          k =-1.0000 0.3000 0.0000 (   560 PWs)   bands (ev):

    -5.5378  -5.4413  -5.2202  -5.1856  -5.0938   5.0399   9.1314  11.9547
    12.4754  20.2025

          k =-1.0000 0.3125 0.0000 (   560 PWs)   bands (ev):

    -5.5293  -5.4375  -5.2245  -5.1947  -5.0939   5.0438   9.1919  11.8476
    12.4218  20.3918

          k =-1.0000 0.3250 0.0000 (   560 PWs)   bands (ev):

    -5.5205  -5.4337  -5.2285  -5.2039  -5.0939   5.0477   9.2545  11.7407
    12.3712  20.5830

          k =-1.0000 0.3375 0.0000 (   560 PWs)   bands (ev):

    -5.5114  -5.4299  -5.2324  -5.2131  -5.0939   5.0514   9.3193  11.6344
    12.3236  20.7757

          k =-1.0000 0.3500 0.0000 (   560 PWs)   bands (ev):

    -5.5019  -5.4261  -5.2360  -5.2224  -5.0938   5.0549   9.3863  11.5287
    12.2791  20.9694

          k =-1.0000 0.3625 0.0000 (   556 PWs)   bands (ev):

    -5.4901  -5.4073  -5.2306  -5.1586  -5.0910   5.0585   9.4572  11.4238
    12.2393  21.1645

          k =-1.0000 0.3750 0.0000 (   556 PWs)   bands (ev):

    -5.4800  -5.4035  -5.2343  -5.1691  -5.0909   5.0616   9.5284  11.3197
    12.2014  21.3585

          k =-1.0000 0.3875 0.0000 (   550 PWs)   bands (ev):

    -5.4233  -5.3935  -5.2090  -5.1199  -5.0800   5.0645   9.6034  11.2187
    12.1673  21.5523

          k =-1.0000 0.4000 0.0000 (   550 PWs)   bands (ev):

    -5.4135  -5.3904  -5.2122  -5.1316  -5.0799   5.0671   9.6787  11.1165
    12.1362  21.7429

          k =-1.0000 0.4125 0.0000 (   550 PWs)   bands (ev):

    -5.4033  -5.3874  -5.2149  -5.1431  -5.0798   5.0695   9.7560  11.0154
    12.1086  21.9296

          k =-1.0000 0.4250 0.0000 (   550 PWs)   bands (ev):

    -5.3929  -5.3847  -5.2172  -5.1546  -5.0796   5.0716   9.8353  10.9154
    12.0846  22.1102

          k =-1.0000 0.4375 0.0000 (   550 PWs)   bands (ev):

    -5.3823  -5.3822  -5.2189  -5.1660  -5.0794   5.0734   9.9164  10.8168
    12.0643  22.2816

          k =-1.0000 0.4500 0.0000 (   554 PWs)   bands (ev):

    -5.4198  -5.3748  -5.2221  -5.2219  -5.0936   5.0745   9.9978  10.7193
    12.0444  22.4354

          k =-1.0000 0.4625 0.0000 (   558 PWs)   bands (ev):

    -5.4320  -5.3773  -5.2886  -5.2234  -5.1184   5.0756  10.0805  10.6228
    12.0301  22.5719

          k =-1.0000 0.4750 0.0000 (   560 PWs)   bands (ev):

    -5.4310  -5.3660  -5.3191  -5.2591  -5.1186   5.0764  10.1662  10.5283
    12.0207  22.6809

          k =-1.0000 0.4875 0.0000 (   560 PWs)   bands (ev):

    -5.4304  -5.3546  -5.3311  -5.2599  -5.1187   5.0769  10.2542  10.4354
    12.0151  22.7521

          k =-1.0000 0.5000 0.0000 (   560 PWs)   bands (ev):

    -5.4302  -5.3430  -5.3430  -5.2602  -5.1187   5.0771  10.3440  10.3440
    12.0132  22.7770

          k =-0.9875 0.5000 0.0125 (   560 PWs)   bands (ev):

    -5.4305  -5.3432  -5.3422  -5.2600  -5.1189   5.0730  10.3286  10.3530
    12.0315  22.7567

          k =-0.9750 0.5000 0.0250 (   552 PWs)   bands (ev):

    -5.3831  -5.3352  -5.2682  -5.2368  -5.0609   5.0613  10.2871  10.3802
    12.0898  22.7035

          k =-0.9625 0.5000 0.0375 (   550 PWs)   bands (ev):

    -5.3662  -5.3355  -5.2504  -5.2230  -5.0626   5.0414  10.2194  10.4247
    12.1751  22.6193

          k =-0.9500 0.5000 0.0500 (   548 PWs)   bands (ev):

    -5.3685  -5.3163  -5.2234  -5.2206  -5.0608   5.0142  10.1340  10.4871
    12.2827  22.5136

          k =-0.9375 0.5000 0.0625 (   548 PWs)   bands (ev):

    -5.3735  -5.3177  -5.2208  -5.2170  -5.0644   4.9800  10.0349  10.5652
    12.4081  22.3949

          k =-0.9250 0.5000 0.0750 (   546 PWs)   bands (ev):

    -5.3936  -5.2866  -5.1998  -5.1914  -5.0765   4.9399   9.9277  10.6606
    12.5476  22.2681

          k =-0.9125 0.5000 0.0875 (   546 PWs)   bands (ev):

    -5.3983  -5.2899  -5.2031  -5.1838  -5.0797   4.8943   9.8145  10.7694
    12.6988  22.1389

          k =-0.9000 0.5000 0.1000 (   548 PWs)   bands (ev):

    -5.4130  -5.3002  -5.2150  -5.2029  -5.0824   4.8440   9.6971  10.8922
    12.8571  22.0072

          k =-0.8875 0.5000 0.1125 (   546 PWs)   bands (ev):

    -5.4119  -5.3027  -5.1938  -5.1930  -5.0661   4.7901   9.5792  11.0287
    13.0247  21.8780

          k =-0.8750 0.5000 0.1250 (   552 PWs)   bands (ev):

    -5.4477  -5.3290  -5.2593  -5.2083  -5.0874   4.7326   9.4581  11.1766
    13.1953  21.7472

          k =-0.8625 0.5000 0.1375 (   552 PWs)   bands (ev):

    -5.4511  -5.3339  -5.2518  -5.2116  -5.0927   4.6733   9.3406  11.3366
    13.3734  21.6219

          k =-0.8500 0.5000 0.1500 (   552 PWs)   bands (ev):

    -5.4540  -5.3389  -5.2439  -5.2158  -5.0972   4.6124   9.2244  11.5074
    13.5555  21.5001

          k =-0.8375 0.5000 0.1625 (   556 PWs)   bands (ev):

    -5.4573  -5.3669  -5.2772  -5.2532  -5.1048   4.5497   9.1087  11.6861
    13.7409  21.3822

          k =-0.8250 0.5000 0.1750 (   556 PWs)   bands (ev):

    -5.4592  -5.3713  -5.2688  -5.2595  -5.1089   4.4872   8.9968  11.8761
    13.9291  21.2690

          k =-0.8125 0.5000 0.1875 (   556 PWs)   bands (ev):

    -5.4606  -5.3756  -5.2665  -5.2600  -5.1123   4.4246   8.8876  12.0747
    14.1195  21.1607

          k =-0.8000 0.5000 0.2000 (   554 PWs)   bands (ev):

    -5.4614  -5.3796  -5.2492  -5.2440  -5.0966   4.3625   8.7814  12.2822
    14.3117  21.0580

          k =-0.7875 0.5000 0.2125 (   554 PWs)   bands (ev):

    -5.4619  -5.3838  -5.2509  -5.2399  -5.1013   4.3013   8.6783  12.4964
    14.5050  20.9612

          k =-0.7750 0.5000 0.2250 (   554 PWs)   bands (ev):

    -5.4620  -5.3879  -5.2585  -5.2303  -5.1051   4.2412   8.5785  12.7174
    14.6989  20.8707

          k =-0.7625 0.5000 0.2375 (   554 PWs)   bands (ev):

    -5.4616  -5.3919  -5.2667  -5.2204  -5.1080   4.1826   8.4823  12.9448
    14.8929  20.7872

          k =-0.7500 0.5000 0.2500 (   552 PWs)   bands (ev):

    -5.4419  -5.3947  -5.2693  -5.1956  -5.0988   4.1258   8.3901  13.1785
    15.0870  20.7130

          k =-0.7375 0.5000 0.2625 (   554 PWs)   bands (ev):

    -5.4412  -5.4003  -5.2969  -5.2075  -5.1114   4.0708   8.3009  13.4165
    15.2791  20.6448

          k =-0.7250 0.5000 0.2750 (   556 PWs)   bands (ev):

    -5.4413  -5.4198  -5.3084  -5.2324  -5.1135   4.0173   8.2155  13.6594
    15.4689  20.5852

          k =-0.7125 0.5000 0.2875 (   556 PWs)   bands (ev):

    -5.4399  -5.4234  -5.3185  -5.2238  -5.1141   3.9668   8.1348  13.9068
    15.6561  20.5350

          k =-0.7000 0.5000 0.3000 (   558 PWs)   bands (ev):

    -5.4435  -5.4269  -5.3289  -5.2165  -5.1612   3.9185   8.0583  14.1580
    15.8391  20.4946

          k =-0.6875 0.5000 0.3125 (   556 PWs)   bands (ev):

    -5.4382  -5.4178  -5.3385  -5.1717  -5.1607   3.8733   7.9864  14.4121
    16.0178  20.4657

          k =-0.6750 0.5000 0.3250 (   560 PWs)   bands (ev):

    -5.4953  -5.4265  -5.3583  -5.1843  -5.1719   3.8302   7.9181  14.6676
    16.1875  20.4431

          k =-0.6625 0.5000 0.3375 (   560 PWs)   bands (ev):

    -5.4942  -5.4300  -5.3674  -5.1768  -5.1715   3.7900   7.8544  14.9255
    16.3527  20.4386

          k =-0.6500 0.5000 0.3500 (   558 PWs)   bands (ev):

    -5.4611  -5.4315  -5.3574  -5.1708  -5.1690   3.7526   7.7952  15.1845
    16.5102  20.4502

          k =-0.6375 0.5000 0.3625 (   562 PWs)   bands (ev):

    -5.4845  -5.4346  -5.4172  -5.1891  -5.1763   3.7179   7.7403  15.4405
    16.6558  20.4713

          k =-0.6250 0.5000 0.3750 (   562 PWs)   bands (ev):

    -5.4845  -5.4372  -5.4265  -5.1829  -5.1751   3.6862   7.6901  15.6961
    16.7912  20.5095

          k =-0.6125 0.5000 0.3875 (   564 PWs)   bands (ev):

    -5.4951  -5.4582  -5.4376  -5.1880  -5.1855   3.6573   7.6446  15.9479
    16.9142  20.5621

          k =-0.6000 0.5000 0.4000 (   564 PWs)   bands (ev):

    -5.4947  -5.4619  -5.4440  -5.1869  -5.1798   3.6315   7.6037  16.1937
    17.0244  20.6300

          k =-0.5875 0.5000 0.4125 (   564 PWs)   bands (ev):

    -5.4942  -5.4656  -5.4490  -5.1858  -5.1743   3.6086   7.5676  16.4307
    17.1209  20.7114

          k =-0.5750 0.5000 0.4250 (   568 PWs)   bands (ev):

    -5.5283  -5.4704  -5.4558  -5.2229  -5.2011   3.5886   7.5361  16.6552
    17.2032  20.8018

          k =-0.5625 0.5000 0.4375 (   566 PWs)   bands (ev):

    -5.5224  -5.4734  -5.4581  -5.2097  -5.1610   3.5718   7.5096  16.8630
    17.2722  20.9031

          k =-0.5500 0.5000 0.4500 (   566 PWs)   bands (ev):

    -5.4950  -5.4757  -5.4466  -5.2150  -5.1961   3.5581   7.4877  17.0484
    17.3278  21.0080

          k =-0.5375 0.5000 0.4625 (   568 PWs)   bands (ev):

    -5.5014  -5.4985  -5.4536  -5.2178  -5.2160   3.5474   7.4707  17.2040
    17.3703  21.1070

          k =-0.5250 0.5000 0.4750 (   568 PWs)   bands (ev):

    -5.5017  -5.5004  -5.4552  -5.2169  -5.2161   3.5397   7.4586  17.3231
    17.4002  21.1919

          k =-0.5125 0.5000 0.4875 (   568 PWs)   bands (ev):

    -5.5019  -5.5016  -5.4561  -5.2164  -5.2162   3.5351   7.4513  17.3981
    17.4179  21.2504

          k =-0.5000 0.5000 0.5000 (   568 PWs)   bands (ev):

    -5.5020  -5.5020  -5.4564  -5.2162  -5.2162   3.5335   7.4489  17.4238
    17.4238  21.2714

          k =-0.4875 0.4875 0.4875 (   568 PWs)   bands (ev):

    -5.5018  -5.5018  -5.4561  -5.2164  -5.2164   3.5179   7.4711  17.4261
    17.4261  21.2510

          k =-0.4750 0.4750 0.4750 (   568 PWs)   bands (ev):

    -5.5012  -5.5012  -5.4551  -5.2169  -5.2169   3.4721   7.5366  17.4330
    17.4330  21.2104

          k =-0.4625 0.4625 0.4625 (   568 PWs)   bands (ev):

    -5.5001  -5.5001  -5.4535  -5.2178  -5.2178   3.3990   7.6425  17.4443
    17.4443  21.1669

          k =-0.4500 0.4500 0.4500 (   562 PWs)   bands (ev):

    -5.4915  -5.4915  -5.4447  -5.1487  -5.1487   3.3033   7.7847  17.4603
    17.4603  21.1258

          k =-0.4375 0.4375 0.4375 (   562 PWs)   bands (ev):

    -5.4900  -5.4900  -5.4418  -5.1523  -5.1523   3.1883   7.9587  17.4806
    17.4806  21.0875

          k =-0.4250 0.4250 0.4250 (   559 PWs)   bands (ev):

    -5.4504  -5.4504  -5.4344  -5.1568  -5.1568   3.0589   8.1600  17.5052
    17.5052  21.0534

          k =-0.4125 0.4125 0.4125 (   559 PWs)   bands (ev):

    -5.4496  -5.4496  -5.4305  -5.1617  -5.1617   2.9191   8.3848  17.5341
    17.5341  21.0226

          k =-0.4000 0.4000 0.4000 (   559 PWs)   bands (ev):

    -5.4486  -5.4486  -5.4261  -5.1667  -5.1667   2.7721   8.6297  17.5672
    17.5672  20.9959

          k =-0.3875 0.3875 0.3875 (   559 PWs)   bands (ev):

    -5.4472  -5.4472  -5.4210  -5.1718  -5.1718   2.6206   8.8921  17.6043
    17.6043  20.9731

          k =-0.3750 0.3750 0.3750 (   562 PWs)   bands (ev):

    -5.4763  -5.4471  -5.4471  -5.1859  -5.1859   2.4647   9.1685  17.6453
    17.6453  20.9474

          k =-0.3625 0.3625 0.3625 (   556 PWs)   bands (ev):

    -5.4422  -5.4422  -5.4278  -5.1453  -5.1453   2.3117   9.4608  17.6903
    17.6903  20.9374

          k =-0.3500 0.3500 0.3500 (   562 PWs)   bands (ev):

    -5.4556  -5.4556  -5.4387  -5.2142  -5.2142   2.1570   9.7635  17.7382
    17.7382  20.9246

          k =-0.3375 0.3375 0.3375 (   562 PWs)   bands (ev):

    -5.4539  -5.4539  -5.4381  -5.2246  -5.2246   2.0048  10.0774  17.7898
    17.7898  20.9169

          k =-0.3250 0.3250 0.3250 (   562 PWs)   bands (ev):

    -5.4522  -5.4522  -5.4371  -5.2347  -5.2347   1.8552  10.4013  17.8446
    17.8446  20.9131

          k =-0.3125 0.3125 0.3125 (   561 PWs)   bands (ev):

    -5.4503  -5.4503  -5.4105  -5.2445  -5.2445   1.7094  10.7351  17.9023
    17.9023  20.9162

          k =-0.3000 0.3000 0.3000 (   561 PWs)   bands (ev):

    -5.4486  -5.4486  -5.4095  -5.2538  -5.2538   1.5669  11.0765  17.9628
    17.9628  20.9201

          k =-0.2875 0.2875 0.2875 (   567 PWs)   bands (ev):

    -5.4605  -5.4538  -5.4538  -5.3121  -5.3121   1.4276  11.4239  18.0256
    18.0256  20.9216

          k =-0.2750 0.2750 0.2750 (   567 PWs)   bands (ev):

    -5.4602  -5.4518  -5.4518  -5.3228  -5.3228   1.2943  11.7804  18.0907
    18.0907  20.9331

          k =-0.2625 0.2625 0.2625 (   561 PWs)   bands (ev):

    -5.4423  -5.4423  -5.4293  -5.2790  -5.2790   1.1665  12.1449  18.1583
    18.1583  20.9517

          k =-0.2500 0.2500 0.2500 (   561 PWs)   bands (ev):

    -5.4415  -5.4415  -5.4288  -5.2897  -5.2897   1.0433  12.5146  18.2271
    18.2271  20.9707

          k =-0.2375 0.2375 0.2375 (   564 PWs)   bands (ev):

    -5.5008  -5.4411  -5.4411  -5.3046  -5.3046   0.9248  12.8873  18.2972
    18.2972  20.9851

          k =-0.2250 0.2250 0.2250 (   564 PWs)   bands (ev):

    -5.5025  -5.4412  -5.4412  -5.3134  -5.3134   0.8128  13.2682  18.3684
    18.3684  21.0114

          k =-0.2125 0.2125 0.2125 (   564 PWs)   bands (ev):

    -5.5040  -5.4420  -5.4420  -5.3209  -5.3209   0.7064  13.6541  18.4403
    18.4403  21.0414

          k =-0.2000 0.2000 0.2000 (   552 PWs)   bands (ev):

    -5.4806  -5.3595  -5.3595  -5.2640  -5.2640   0.6060  14.0450  18.5141
    18.5141  21.0777

          k =-0.1875 0.1875 0.1875 (   552 PWs)   bands (ev):

    -5.4823  -5.3644  -5.3644  -5.2680  -5.2680   0.5114  14.4392  18.5861
    18.5861  21.1149

          k =-0.1750 0.1750 0.1750 (   552 PWs)   bands (ev):

    -5.4838  -5.3700  -5.3700  -5.2706  -5.2706   0.4228  14.8365  18.6575
    18.6575  21.1556

          k =-0.1625 0.1625 0.1625 (   552 PWs)   bands (ev):

    -5.4849  -5.3762  -5.3762  -5.2719  -5.2719   0.3402  15.2362  18.7278
    18.7278  21.1997

          k =-0.1500 0.1500 0.1500 (   552 PWs)   bands (ev):

    -5.4858  -5.3825  -5.3825  -5.2721  -5.2721   0.2638  15.6372  18.7965
    18.7965  21.2472

          k =-0.1375 0.1375 0.1375 (   552 PWs)   bands (ev):

    -5.4863  -5.3889  -5.3889  -5.2716  -5.2716   0.1934  16.0384  18.8632
    18.8632  21.2977

          k =-0.1250 0.1250 0.1250 (   552 PWs)   bands (ev):

    -5.4865  -5.3951  -5.3951  -5.2704  -5.2704   0.1291  16.4382  18.9271
    18.9271  21.3511

          k =-0.1125 0.1125 0.1125 (   546 PWs)   bands (ev):

    -5.4796  -5.3919  -5.3919  -5.2028  -5.2028   0.0711  16.8346  18.9879
    18.9879  21.4076

          k =-0.1000 0.1000 0.1000 (   549 PWs)   bands (ev):

    -5.4792  -5.3969  -5.3969  -5.2424  -5.2424   0.0190  17.2246  19.0446
    19.0446  21.4658

          k =-0.0875 0.0875 0.0875 (   543 PWs)   bands (ev):

    -5.4746  -5.3537  -5.3537  -5.2164  -5.2164  -0.0268  17.6048  19.0970
    19.0970  21.5258

          k =-0.0750 0.0750 0.0750 (   540 PWs)   bands (ev):

    -5.4056  -5.3573  -5.3573  -5.2140  -5.2140  -0.0665  17.9711  19.1438
    19.1438  21.5900

          k =-0.0625 0.0625 0.0625 (   540 PWs)   bands (ev):

    -5.4069  -5.3612  -5.3612  -5.2151  -5.2151  -0.1001  18.3140  19.1847
    19.1847  21.6511

          k =-0.0500 0.0500 0.0500 (   537 PWs)   bands (ev):

    -5.3640  -5.3622  -5.3622  -5.2015  -5.2015  -0.1275  18.6259  19.2191
    19.2191  21.7127

          k =-0.0375 0.0375 0.0375 (   537 PWs)   bands (ev):

    -5.3658  -5.3647  -5.3647  -5.2026  -5.2026  -0.1489  18.8935  19.2465
    19.2465  21.7699

          k =-0.0250 0.0250 0.0250 (   537 PWs)   bands (ev):

    -5.3671  -5.3666  -5.3666  -5.2034  -5.2034  -0.1642  19.1023  19.2665
    19.2665  21.8203

          k =-0.0125 0.0125 0.0125 (   537 PWs)   bands (ev):

    -5.3679  -5.3677  -5.3677  -5.2038  -5.2038  -0.1734  19.2363  19.2786
    19.2786  21.8565

          k = 0.0000 0.0000 0.0000 (   537 PWs)   bands (ev):

    -5.3681  -5.3681  -5.3681  -5.2040  -5.2040  -0.1764  19.2826  19.2826
    19.2826  21.8700

          k =-0.0188 0.0188 0.0000 (   537 PWs)   bands (ev):

    -5.3679  -5.3677  -5.3673  -5.2038  -5.2037  -0.1718  19.2217  19.2599
    19.2848  21.8499

          k =-0.0375 0.0375 0.0000 (   537 PWs)   bands (ev):

    -5.3671  -5.3664  -5.3648  -5.2034  -5.2028  -0.1581  19.0493  19.1917
    19.2912  21.7979

          k =-0.0563 0.0563 0.0000 (   537 PWs)   bands (ev):

    -5.3658  -5.3642  -5.3607  -5.2026  -5.2013  -0.1352  18.7894  19.0779
    19.3015  21.7327

          k =-0.0750 0.0750 0.0000 (   541 PWs)   bands (ev):

    -5.3957  -5.3852  -5.3664  -5.2303  -5.2082  -0.1032  18.4680  18.9193
    19.3151  21.6723

          k =-0.0938 0.0938 0.0000 (   541 PWs)   bands (ev):

    -5.3948  -5.3787  -5.3628  -5.2302  -5.2063  -0.0619  18.1064  18.7201
    19.3310  21.6308

          k =-0.1125 0.1125 0.0000 (   541 PWs)   bands (ev):

    -5.4225  -5.3736  -5.3584  -5.2108  -5.1916  -0.0114  17.7194  18.4847
    19.3482  21.6123

          k =-0.1313 0.1313 0.0000 (   547 PWs)   bands (ev):

    -5.4788  -5.4122  -5.3555  -5.2317  -5.2245   0.0481  17.3170  18.2191
    19.3652  21.6180

          k =-0.1500 0.1500 0.0000 (   553 PWs)   bands (ev):

    -5.5282  -5.4118  -5.3589  -5.3040  -5.2463   0.1168  16.9071  17.9309
    19.3800  21.6480

          k =-0.1688 0.1688 0.0000 (   553 PWs)   bands (ev):

    -5.5297  -5.4032  -5.3525  -5.3077  -5.2443   0.1948  16.4945  17.6284
    19.3907  21.7026

          k =-0.1875 0.1875 0.0000 (   557 PWs)   bands (ev):

    -5.5350  -5.4343  -5.3783  -5.3357  -5.2454   0.2819  16.0819  17.3145
    19.3946  21.7766

          k =-0.2063 0.2063 0.0000 (   559 PWs)   bands (ev):

    -5.5353  -5.4457  -5.3712  -5.3682  -5.2469   0.3783  15.6729  16.9934
    19.3891  21.8689

          k =-0.2250 0.2250 0.0000 (   559 PWs)   bands (ev):

    -5.5348  -5.4416  -5.3709  -5.3634  -5.2393   0.4837  15.2694  16.6679
    19.3712  21.9774

          k =-0.2438 0.2438 0.0000 (   559 PWs)   bands (ev):

    -5.5335  -5.4382  -5.3729  -5.3549  -5.2303   0.5981  14.8728  16.3404
    19.3381  22.1007

          k =-0.2625 0.2625 0.0000 (   559 PWs)   bands (ev):

    -5.5314  -5.4355  -5.3743  -5.3458  -5.2202   0.7214  14.4842  16.0126
    19.2873  22.2377

          k =-0.2812 0.2812 0.0000 (   560 PWs)   bands (ev):

    -5.5285  -5.4415  -5.3749  -5.3361  -5.2271   0.8532  14.1047  15.6860
    19.2167  22.3874

          k =-0.3000 0.3000 0.0000 (   560 PWs)   bands (ev):

    -5.5246  -5.4397  -5.3748  -5.3258  -5.2171   0.9939  13.7355  15.3615
    19.1254  22.5493

          k =-0.3188 0.3188 0.0000 (   560 PWs)   bands (ev):

    -5.5196  -5.4387  -5.3738  -5.3150  -5.2065   1.1428  13.3773  15.0402
    19.0132  22.3005

          k =-0.3375 0.3375 0.0000 (   558 PWs)   bands (ev):

    -5.5045  -5.4217  -5.4004  -5.3085  -5.1421   1.3008  13.0313  14.7236
    18.8808  22.0417

          k =-0.3563 0.3563 0.0000 (   558 PWs)   bands (ev):

    -5.4992  -5.4242  -5.4019  -5.2970  -5.1342   1.4656  12.6973  14.4103
    18.7302  21.7905

          k =-0.3750 0.3750 0.0000 (   558 PWs)   bands (ev):

    -5.4926  -5.4268  -5.4023  -5.2850  -5.1267   1.6378  12.3766  14.1019
    18.5635  21.5475

          k =-0.3938 0.3938 0.0000 (   558 PWs)   bands (ev):

    -5.4849  -5.4296  -5.4018  -5.2726  -5.1196   1.8169  12.0700  13.7989
    18.3833  21.3127

          k =-0.4125 0.4125 0.0000 (   554 PWs)   bands (ev):

    -5.4243  -5.3859  -5.3528  -5.2445  -5.1723   2.0017  11.7785  13.5090
    18.1936  21.0877

          k =-0.4313 0.4313 0.0000 (   554 PWs)   bands (ev):

    -5.4282  -5.3795  -5.3529  -5.2321  -5.1714   2.1925  11.5025  13.2172
    17.9941  20.8697

          k =-0.4500 0.4500 0.0000 (   556 PWs)   bands (ev):

    -5.4405  -5.3808  -5.3518  -5.2194  -5.2085   2.3871  11.2430  12.9311
    17.7885  20.6596

          k =-0.4688 0.4688 0.0000 (   552 PWs)   bands (ev):

    -5.4333  -5.3555  -5.3411  -5.2058  -5.1452   2.5880  11.0011  12.6535
    17.5790  20.4587

          k =-0.4875 0.4875 0.0000 (   552 PWs)   bands (ev):

    -5.4382  -5.3463  -5.3382  -5.1925  -5.1521   2.7898  10.7779  12.3814
    17.3670  20.2655

          k =-0.5063 0.5063 0.0000 (   554 PWs)   bands (ev):

    -5.4541  -5.3743  -5.3341  -5.1789  -5.1648   2.9926  10.5747  12.1138
    17.1544  20.0792

          k =-0.5250 0.5250 0.0000 (   550 PWs)   bands (ev):

    -5.4524  -5.3479  -5.2711  -5.1709  -5.1443   3.1955  10.3930  11.8572
    16.9446  19.9037

          k =-0.5438 0.5438 0.0000 (   550 PWs)   bands (ev):

    -5.4580  -5.3366  -5.2663  -5.1806  -5.1311   3.3964  10.2342  11.6070
    16.7345  19.7346

          k =-0.5625 0.5625 0.0000 (   550 PWs)   bands (ev):

    -5.4636  -5.3241  -5.2604  -5.1913  -5.1178   3.5932  10.1003  11.3646
    16.5273  19.5734

          k =-0.5813 0.5813 0.0000 (   546 PWs)   bands (ev):

    -5.4622  -5.2638  -5.2298  -5.1880  -5.0953   3.7846   9.9931  11.1329
    16.3248  19.4207

          k =-0.6000 0.6000 0.0000 (   554 PWs)   bands (ev):

    -5.5157  -5.2830  -5.2814  -5.2101  -5.1435   3.9664   9.9142  10.9047
    16.1245  19.2668

          k =-0.6188 0.6188 0.0000 (   554 PWs)   bands (ev):

    -5.5223  -5.2738  -5.2691  -5.2237  -5.1320   4.1373   9.8668  10.6868
    15.9311  19.1280

          k =-0.6375 0.6375 0.0000 (   560 PWs)   bands (ev):

    -5.5321  -5.3124  -5.2945  -5.2718  -5.1530   4.2941   9.8512  10.4757
    15.7425  18.9961

          k =-0.6562 0.6562 0.0000 (   558 PWs)   bands (ev):

    -5.5328  -5.3000  -5.2796  -5.2473  -5.1426   4.4367   9.8722  10.2753
    15.5617  18.8722

          k =-0.6750 0.6750 0.0000 (   558 PWs)   bands (ev):

    -5.5391  -5.2915  -5.2651  -5.2639  -5.1323   4.5615   9.9276  10.0841
    15.3878  18.7547

          k =-0.6938 0.6938 0.0000 (   556 PWs)   bands (ev):

    -5.5387  -5.2823  -5.2451  -5.2434  -5.1220   4.6688   9.9022  10.0206
    15.2214  18.6446

          k =-0.7125 0.7125 0.0000 (   552 PWs)   bands (ev):

    -5.4846  -5.2479  -5.2295  -5.2275  -5.1219   4.7580   9.7295  10.1482
    15.0640  18.5544

          k =-0.7313 0.7313 0.0000 (   548 PWs)   bands (ev):

    -5.4731  -5.2659  -5.2140  -5.1426  -5.1076   4.8300   9.5686  10.3087
    14.9137  18.4604

          k =-0.7500 0.7500 0.0000 (   548 PWs)   bands (ev):

    -5.4827  -5.2835  -5.2041  -5.1288  -5.0990   4.8855   9.4153  10.5008
    14.7719  18.3679

     Writing all to output data dir ./tmp/pb.save/ :
     XML data file, pseudopotentials, collected wavefunctions
 
     init_run     :      0.41s CPU      0.57s WALL (       1 calls)
     electrons    :      0.73s CPU      0.78s WALL (       1 calls)

     Called by init_run:
     wfcinit      :      0.00s CPU      0.00s WALL (       1 calls)
     wfcinit:atom :      0.00s CPU      0.00s WALL (      26 calls)
     wfcinit:wfcr :      0.02s CPU      0.03s WALL (      26 calls)
     potinit      :      0.30s CPU      0.35s WALL (       1 calls)
     hinit0       :      0.06s CPU      0.16s WALL (       1 calls)

     Called by electrons:
     c_bands      :      0.73s CPU      0.78s WALL (       1 calls)
     v_of_rho     :      0.00s CPU      0.00s WALL (       1 calls)
     v_h          :      0.00s CPU      0.00s WALL (       1 calls)
     v_xc         :      0.00s CPU      0.00s WALL (       1 calls)

     Called by c_bands:
     init_us_2    :      0.00s CPU      0.00s WALL (      26 calls)
     cegterg      :      0.57s CPU      0.60s WALL (      52 calls)

     Called by sum_band:

     Called by *egterg:
     cdiaghg      :      0.11s CPU      0.12s WALL (     870 calls)
     cegterg:over :      0.04s CPU      0.04s WALL (     844 calls)
     cegterg:upda :      0.01s CPU      0.01s WALL (     844 calls)
     cegterg:last :      0.01s CPU      0.01s WALL (     456 calls)
     h_psi        :      0.39s CPU      0.42s WALL (     922 calls)
     g_psi        :      0.00s CPU      0.00s WALL (     844 calls)

     Called by h_psi:
     h_psi:calbec :      0.02s CPU      0.02s WALL (     922 calls)
     vloc_psi     :      0.36s CPU      0.38s WALL (     922 calls)
                                        0.00s GPU  (     922 calls)
     add_vuspsi   :      0.01s CPU      0.01s WALL (     922 calls)

     General routines
     calbec       :      0.02s CPU      0.02s WALL (     922 calls)
     fft          :      0.04s CPU      0.13s WALL (      11 calls)
     fftw         :      0.34s CPU      0.36s WALL (    9826 calls)
     davcio       :      0.00s CPU      0.00s WALL (      52 calls)
 
     Parallel routines
 
     PWSCF        :      1.55s CPU      2.41s WALL

 
   This run was terminated on:  21: 6:25   4Sep2026            

=------------------------------------------------------------------------------=
   JOB DONE.
=------------------------------------------------------------------------------=
