Pb4
1.0
   4.9895094869880676    0.0000000000000000    0.0000000000000003
   0.0000000000000008    4.9895094869880676    0.0000000000000003
   0.0000000000000000    0.0000000000000000    4.9895094869880676
Pb
4
direct
   0.0000000000000000    0.0000000000000000    0.0000000000000000 Pb0+
   0.0000000000000000    0.5000000000000000    0.5000000000000000 Pb0+
   0.5000000000000000    0.0000000000000000    0.5000000000000000 Pb0+
   0.5000000000000000    0.5000000000000000    0.0000000000000000 Pb0+
