
     Program PWSCF v.7.5 starts on  4Sep2026 at 18:57:23 

     This program is part of the open-source Quantum ESPRESSO suite
     for quantum simulation of materials; please cite
         "P. Giannozzi et al., J. Phys.:Condens. Matter 21 395502 (2009);
         "P. Giannozzi et al., J. Phys.:Condens. Matter 29 465901 (2017);
         "P. Giannozzi et al., J. Chem. Phys. 152 154105 (2020);
          URL http://www.quantum-espresso.org", 
     in publications or presentations arising from this work. More details at
     http://www.quantum-espresso.org/quote

     Parallel version (MPI), running on    64 processors

     MPI processes distributed on     1 nodes
     183012 MiB available memory on the printing compute node when the environment starts
 
     Reading input from 3nscf.in
     Message from routine read_cards :
     DEPRECATED: no units specified in ATOMIC_POSITIONS card
     Message from routine read_cards :
     ATOMIC_POSITIONS: units set to alat

     Current dimensions of program PWSCF are:
     Max number of different atomic species (ntypx) = 10
     Max number of k-points (npk) =  40000
     Max angular momentum in pseudopotentials (lmaxx) =  4

     Atomic positions and unit cell read from directory:
     ./tmp/pb.save/
 
 
     K-points division:     npool     =       8
     R & G space division:  proc/nbgrp/npool/nimage =       8
     Subspace diagonalization in iterative solution of the eigenvalue problem:
     a serial algorithm will be used

 
     Parallelization info
     --------------------
     sticks:   dense  smooth     PW     G-vecs:    dense   smooth      PW
     Min          45      45     15                  558      558     117
     Max          46      46     16                  560      560     121
     Sum         361     361    121                 4477     4477     941
 
     Using Slab Decomposition
 


     bravais-lattice index     =            2
     lattice parameter (alat)  =       9.2970  a.u.
     unit-cell volume          =     200.8947 (a.u.)^3
     number of atoms/cell      =            1
     number of atomic types    =            1
     number of electrons       =        14.00
     number of Kohn-Sham states=           10
     kinetic-energy cutoff     =      30.0000  Ry
     charge density cutoff     =     120.0000  Ry
     Exchange-correlation= PBE
                           (   1   4   3   4   0   0   0)

     celldm(1)=   9.297000  celldm(2)=   0.000000  celldm(3)=   0.000000
     celldm(4)=   0.000000  celldm(5)=   0.000000  celldm(6)=   0.000000

     crystal axes: (cart. coord. in units of alat)
               a(1) = (  -0.500000   0.000000   0.500000 )  
               a(2) = (   0.000000   0.500000   0.500000 )  
               a(3) = (  -0.500000   0.500000   0.000000 )  

     reciprocal axes: (cart. coord. in units 2 pi/alat)
               b(1) = ( -1.000000 -1.000000  1.000000 )  
               b(2) = (  1.000000  1.000000  1.000000 )  
               b(3) = ( -1.000000  1.000000 -1.000000 )  


     PseudoPot. # 1 for Pb read from file:
     /home/hwang/Pb/pseudo/Pb.upf
     MD5 check sum: 6215d06c6470b1b628b0a05dc3ba27e6
     Pseudo is Norm-conserving + core correction, Zval = 14.0
     Generated using ONCVPSP code by D. R. Hamann
     Using radial grid of 1678 points,  6 beta functions with: 
                l(1) =   0
                l(2) =   0
                l(3) =   1
                l(4) =   1
                l(5) =   2
                l(6) =   2

     atomic species   valence    mass     pseudopotential
     Pb               14.00   207.20000     Pb( 1.00)

     48 Sym. Ops., with inversion, found



   Cartesian axes

     site n.     atom                  positions (alat units)
         1        Pb     tau(   1) = (   0.0000000   0.0000000   0.0000000  )

     number of k points=   216  Marzari-Vanderbilt smearing, width (Ry)=  0.0500

     Number of k-points >= 100: set verbosity='high' to print them.

     Dense  grid:     4477 G-vectors     FFT dimensions: (  24,  24,  24)

     Estimated max dynamical RAM per process >       1.17 MB

     Estimated total dynamical RAM >      74.63 MB

     The potential is recalculated from file :
     ./tmp/pb.save/charge-density

     Starting wfcs are    9 randomized atomic wfcs +    1 random wfcs

     Band Structure Calculation
     Davidson diagonalization with overlap

     ethr =  7.14E-13,  avg # of iterations = 30.7

     total cpu time spent up to now is        5.0 secs

     End of band structure calculation

     Number of k-points >= 100: set verbosity='high' to print the bands.

     the Fermi energy is    11.9455 ev
     (compare with:    11.7835 eV, computed in scf)

     Writing all to output data dir ./tmp/pb.save/ :
     XML data file, pseudopotentials, collected wavefunctions
 
     init_run     :      0.18s CPU      0.34s WALL (       1 calls)
     electrons    :      2.89s CPU      3.23s WALL (       1 calls)

     Called by init_run:
     wfcinit      :      0.00s CPU      0.00s WALL (       1 calls)
     potinit      :      0.10s CPU      0.14s WALL (       1 calls)
     hinit0       :      0.08s CPU      0.19s WALL (       1 calls)

     Called by electrons:
     c_bands      :      2.81s CPU      3.14s WALL (       1 calls)
     v_of_rho     :      0.00s CPU      0.00s WALL (       1 calls)

     Called by c_bands:
     init_us_2    :      0.00s CPU      0.00s WALL (      27 calls)
     cegterg      :      0.69s CPU      0.80s WALL (      57 calls)

     Called by *egterg:
     cdiaghg      :      0.14s CPU      0.15s WALL (     872 calls)
     h_psi        :      0.48s CPU      0.62s WALL (     929 calls)
     g_psi        :      0.00s CPU      0.00s WALL (     845 calls)

     Called by h_psi:
     h_psi:calbec :      0.03s CPU      0.04s WALL (     929 calls)
     vloc_psi     :      0.44s CPU      0.57s WALL (     929 calls)
                                        0.00s GPU  (     929 calls)
     add_vuspsi   :      0.01s CPU      0.01s WALL (     929 calls)

     General routines
     calbec       :      0.03s CPU      0.04s WALL (     929 calls)
     fft          :      0.05s CPU      0.16s WALL (      11 calls)
     fftw         :      0.42s CPU      0.55s WALL (   10426 calls)
     davcio       :      0.00s CPU      0.03s WALL (      54 calls)
 
     Parallel routines
 
     PWSCF        :      4.38s CPU      5.80s WALL

 
   This run was terminated on:  18:57:29   4Sep2026            

=------------------------------------------------------------------------------=
   JOB DONE.
=------------------------------------------------------------------------------=
