&CONTROL
  calculation = 'scf'
  etot_conv_thr = 2.0000d-05
  forc_conv_thr = 1.0000d-04
  outdir = './out/'
  prefix = 'graphene'
  pseudo_dir = 'pseudo/'
  tprnfor = .true.
  tstress = .true.
  verbosity = 'high'
/
&SYSTEM
  degauss = 0.01
  ecutrho = 200
  ecutwfc = 40
  ibrav = 0
  nat = 2
  nosym = .false.
  ntyp = 1
  occupations = 'smearing'
  smearing = 'mv'
/
&ELECTRONS
  conv_thr = 4.000d-10
  electron_maxstep = 80
  mixing_beta = 0.4
/
ATOMIC_SPECIES
  C 12.011 C.upf
ATOMIC_POSITIONS angstrom
  C 0.0000000000 1.4202816622 0.0000000000
  C 1.2300000000 0.7101408311 0.0000000000
K_POINTS automatic
  12 12 1 0 0 0
CELL_PARAMETERS angstrom
  2.4600000000 0.0000000000 0.0000000000
 -1.2300000000 2.1304224933 0.0000000000
  0.0000000000 0.0000000000 20.0000000000

