&CONTROL
  calculation = 'nscf'
  etot_conv_thr = 2.0000d-05
  forc_conv_thr = 1.0000d-04
  outdir = './out/'
  prefix = 'graphene'
  pseudo_dir = './pseudo/'
  tprnfor = .true.
  tstress = .true.
  verbosity = 'high'
/
&SYSTEM
  degauss = 0.01
  ecutrho = 200
  ecutwfc = 40
  ibrav = 0
  nat = 2
  !noinv = .true.
  !nosym = .true.
  ntyp = 1
  occupations = 'smearing'
  smearing = 'mv'
  nbnd = 8
/
&ELECTRONS
  conv_thr = 4.000d-10
  electron_maxstep = 80
  mixing_beta = 0.4
  diago_full_acc = .true.
  startingpot = 'file'
  startingwfc = 'file'
/
ATOMIC_SPECIES
  C 12.011 C.upf
ATOMIC_POSITIONS angstrom
  C 0.0000000000 1.4202816622 0.0000000000
  C 1.2300000000 0.7101408311 0.0000000000
CELL_PARAMETERS angstrom
  2.4600000000 0.0000000000 0.0000000000
 -1.2300000000 2.1304224933 0.0000000000
  0.0000000000 0.0000000000 20.0000000000

K_POINTS crystal
144
  0.00000000  0.00000000  0.00000000  6.944444e-03
  0.00000000  0.08333333  0.00000000  6.944444e-03
  0.00000000  0.16666667  0.00000000  6.944444e-03
  0.00000000  0.25000000  0.00000000  6.944444e-03
  0.00000000  0.33333333  0.00000000  6.944444e-03
  0.00000000  0.41666667  0.00000000  6.944444e-03
  0.00000000  0.50000000  0.00000000  6.944444e-03
  0.00000000  0.58333333  0.00000000  6.944444e-03
  0.00000000  0.66666667  0.00000000  6.944444e-03
  0.00000000  0.75000000  0.00000000  6.944444e-03
  0.00000000  0.83333333  0.00000000  6.944444e-03
  0.00000000  0.91666667  0.00000000  6.944444e-03
  0.08333333  0.00000000  0.00000000  6.944444e-03
  0.08333333  0.08333333  0.00000000  6.944444e-03
  0.08333333  0.16666667  0.00000000  6.944444e-03
  0.08333333  0.25000000  0.00000000  6.944444e-03
  0.08333333  0.33333333  0.00000000  6.944444e-03
  0.08333333  0.41666667  0.00000000  6.944444e-03
  0.08333333  0.50000000  0.00000000  6.944444e-03
  0.08333333  0.58333333  0.00000000  6.944444e-03
  0.08333333  0.66666667  0.00000000  6.944444e-03
  0.08333333  0.75000000  0.00000000  6.944444e-03
  0.08333333  0.83333333  0.00000000  6.944444e-03
  0.08333333  0.91666667  0.00000000  6.944444e-03
  0.16666667  0.00000000  0.00000000  6.944444e-03
  0.16666667  0.08333333  0.00000000  6.944444e-03
  0.16666667  0.16666667  0.00000000  6.944444e-03
  0.16666667  0.25000000  0.00000000  6.944444e-03
  0.16666667  0.33333333  0.00000000  6.944444e-03
  0.16666667  0.41666667  0.00000000  6.944444e-03
  0.16666667  0.50000000  0.00000000  6.944444e-03
  0.16666667  0.58333333  0.00000000  6.944444e-03
  0.16666667  0.66666667  0.00000000  6.944444e-03
  0.16666667  0.75000000  0.00000000  6.944444e-03
  0.16666667  0.83333333  0.00000000  6.944444e-03
  0.16666667  0.91666667  0.00000000  6.944444e-03
  0.25000000  0.00000000  0.00000000  6.944444e-03
  0.25000000  0.08333333  0.00000000  6.944444e-03
  0.25000000  0.16666667  0.00000000  6.944444e-03
  0.25000000  0.25000000  0.00000000  6.944444e-03
  0.25000000  0.33333333  0.00000000  6.944444e-03
  0.25000000  0.41666667  0.00000000  6.944444e-03
  0.25000000  0.50000000  0.00000000  6.944444e-03
  0.25000000  0.58333333  0.00000000  6.944444e-03
  0.25000000  0.66666667  0.00000000  6.944444e-03
  0.25000000  0.75000000  0.00000000  6.944444e-03
  0.25000000  0.83333333  0.00000000  6.944444e-03
  0.25000000  0.91666667  0.00000000  6.944444e-03
  0.33333333  0.00000000  0.00000000  6.944444e-03
  0.33333333  0.08333333  0.00000000  6.944444e-03
  0.33333333  0.16666667  0.00000000  6.944444e-03
  0.33333333  0.25000000  0.00000000  6.944444e-03
  0.33333333  0.33333333  0.00000000  6.944444e-03
  0.33333333  0.41666667  0.00000000  6.944444e-03
  0.33333333  0.50000000  0.00000000  6.944444e-03
  0.33333333  0.58333333  0.00000000  6.944444e-03
  0.33333333  0.66666667  0.00000000  6.944444e-03
  0.33333333  0.75000000  0.00000000  6.944444e-03
  0.33333333  0.83333333  0.00000000  6.944444e-03
  0.33333333  0.91666667  0.00000000  6.944444e-03
  0.41666667  0.00000000  0.00000000  6.944444e-03
  0.41666667  0.08333333  0.00000000  6.944444e-03
  0.41666667  0.16666667  0.00000000  6.944444e-03
  0.41666667  0.25000000  0.00000000  6.944444e-03
  0.41666667  0.33333333  0.00000000  6.944444e-03
  0.41666667  0.41666667  0.00000000  6.944444e-03
  0.41666667  0.50000000  0.00000000  6.944444e-03
  0.41666667  0.58333333  0.00000000  6.944444e-03
  0.41666667  0.66666667  0.00000000  6.944444e-03
  0.41666667  0.75000000  0.00000000  6.944444e-03
  0.41666667  0.83333333  0.00000000  6.944444e-03
  0.41666667  0.91666667  0.00000000  6.944444e-03
  0.50000000  0.00000000  0.00000000  6.944444e-03
  0.50000000  0.08333333  0.00000000  6.944444e-03
  0.50000000  0.16666667  0.00000000  6.944444e-03
  0.50000000  0.25000000  0.00000000  6.944444e-03
  0.50000000  0.33333333  0.00000000  6.944444e-03
  0.50000000  0.41666667  0.00000000  6.944444e-03
  0.50000000  0.50000000  0.00000000  6.944444e-03
  0.50000000  0.58333333  0.00000000  6.944444e-03
  0.50000000  0.66666667  0.00000000  6.944444e-03
  0.50000000  0.75000000  0.00000000  6.944444e-03
  0.50000000  0.83333333  0.00000000  6.944444e-03
  0.50000000  0.91666667  0.00000000  6.944444e-03
  0.58333333  0.00000000  0.00000000  6.944444e-03
  0.58333333  0.08333333  0.00000000  6.944444e-03
  0.58333333  0.16666667  0.00000000  6.944444e-03
  0.58333333  0.25000000  0.00000000  6.944444e-03
  0.58333333  0.33333333  0.00000000  6.944444e-03
  0.58333333  0.41666667  0.00000000  6.944444e-03
  0.58333333  0.50000000  0.00000000  6.944444e-03
  0.58333333  0.58333333  0.00000000  6.944444e-03
  0.58333333  0.66666667  0.00000000  6.944444e-03
  0.58333333  0.75000000  0.00000000  6.944444e-03
  0.58333333  0.83333333  0.00000000  6.944444e-03
  0.58333333  0.91666667  0.00000000  6.944444e-03
  0.66666667  0.00000000  0.00000000  6.944444e-03
  0.66666667  0.08333333  0.00000000  6.944444e-03
  0.66666667  0.16666667  0.00000000  6.944444e-03
  0.66666667  0.25000000  0.00000000  6.944444e-03
  0.66666667  0.33333333  0.00000000  6.944444e-03
  0.66666667  0.41666667  0.00000000  6.944444e-03
  0.66666667  0.50000000  0.00000000  6.944444e-03
  0.66666667  0.58333333  0.00000000  6.944444e-03
  0.66666667  0.66666667  0.00000000  6.944444e-03
  0.66666667  0.75000000  0.00000000  6.944444e-03
  0.66666667  0.83333333  0.00000000  6.944444e-03
  0.66666667  0.91666667  0.00000000  6.944444e-03
  0.75000000  0.00000000  0.00000000  6.944444e-03
  0.75000000  0.08333333  0.00000000  6.944444e-03
  0.75000000  0.16666667  0.00000000  6.944444e-03
  0.75000000  0.25000000  0.00000000  6.944444e-03
  0.75000000  0.33333333  0.00000000  6.944444e-03
  0.75000000  0.41666667  0.00000000  6.944444e-03
  0.75000000  0.50000000  0.00000000  6.944444e-03
  0.75000000  0.58333333  0.00000000  6.944444e-03
  0.75000000  0.66666667  0.00000000  6.944444e-03
  0.75000000  0.75000000  0.00000000  6.944444e-03
  0.75000000  0.83333333  0.00000000  6.944444e-03
  0.75000000  0.91666667  0.00000000  6.944444e-03
  0.83333333  0.00000000  0.00000000  6.944444e-03
  0.83333333  0.08333333  0.00000000  6.944444e-03
  0.83333333  0.16666667  0.00000000  6.944444e-03
  0.83333333  0.25000000  0.00000000  6.944444e-03
  0.83333333  0.33333333  0.00000000  6.944444e-03
  0.83333333  0.41666667  0.00000000  6.944444e-03
  0.83333333  0.50000000  0.00000000  6.944444e-03
  0.83333333  0.58333333  0.00000000  6.944444e-03
  0.83333333  0.66666667  0.00000000  6.944444e-03
  0.83333333  0.75000000  0.00000000  6.944444e-03
  0.83333333  0.83333333  0.00000000  6.944444e-03
  0.83333333  0.91666667  0.00000000  6.944444e-03
  0.91666667  0.00000000  0.00000000  6.944444e-03
  0.91666667  0.08333333  0.00000000  6.944444e-03
  0.91666667  0.16666667  0.00000000  6.944444e-03
  0.91666667  0.25000000  0.00000000  6.944444e-03
  0.91666667  0.33333333  0.00000000  6.944444e-03
  0.91666667  0.41666667  0.00000000  6.944444e-03
  0.91666667  0.50000000  0.00000000  6.944444e-03
  0.91666667  0.58333333  0.00000000  6.944444e-03
  0.91666667  0.66666667  0.00000000  6.944444e-03
  0.91666667  0.75000000  0.00000000  6.944444e-03
  0.91666667  0.83333333  0.00000000  6.944444e-03
  0.91666667  0.91666667  0.00000000  6.944444e-03
