#= General Settings =#
PREC = MED
ISTART = 0
ISPIN = 2

#= Ionic Relaxation Settings =#
NSW = 40
IBRION = 2
ISIF = 2

#= Electronic Relxation Settings =#
ENCUT = 520
ALGO = FAST

#= Write flags =#
LORBIT = 11
