Graphene
1.0
        2.4410462379         0.0000000000         0.0000000000
       -1.2205234005         2.1140078914         0.0000000000
        0.0000000000         0.0000000000        20.0000000000
   C
    2
Direct
     0.000000000         0.000000000         0.500000000
     0.333333333         0.666666667         0.500000000
