K–G–M–K for graphene
13        ! intersections 
line-mode
reciprocal 
    0.3333333333     0.3333333333     0.0000000000 1    K 
    0.0000000000     0.0000000000     0.0000000000 1    GAMMA

    0.0000000000     0.0000000000     0.0000000000 1    GAMMA
    0.5000000000     0.0000000000     0.0000000000 1    M 

    0.5000000000     0.0000000000     0.0000000000 1    M 
    0.3333333333     0.3333333333     0.0000000000 1    K 
